&CONTROL
calculation = "relax"
nstep = 100
tprnfor = .TRUE. 
tstress = .TRUE. 
etot_conv_thr = 1.0d-5
forc_conv_thr = 1.0d-4
disk_io = 'none'
pseudo_dir = '/opt/QEpot/SSSP_efficiency_pseudos/'
/
!controlend

&SYSTEM
occupations = "smearing"
nat = 8
smearing = "gaussian"
ntyp = 2
ibrav = 0
ecutwfc = 90
ecutrho = 1080
nosym = .TRUE.
degauss = 1.00000e-02
nspin = 2
starting_magnetization(2) = 0.000
starting_magnetization(1) = 0.000
!systemend
/

&ELECTRONS
startingwfc = "atomic+random"
mixing_beta = 2.0000e-01
mixing_mode = "plain"
!mixing_ndim = 4
electron_maxstep = 1000
conv_thr = 1.00000e-8
startingpot = "atomic"
!diagonalization = "cg"
/
!electronsend


&IONS
ion_dynamics = "bfgs"
!ion_temperature = "rescaling"
!tempw = 0
/
!ionsend
!cellend

K_POINTS {automatic}
6 6 6 0 0 0
ATOMIC_SPECIES
Cr  51.9961  cr_pbe_v1.5.uspp.F.UPF
Co  58.933  Co_pbe_v1.2.uspp.F.UPF
ATOMIC_POSITIONS (angstrom)
Cr 0.004605919447 2.313242255768 0.001252137476
Co 2.300269919447 0.006042255768 2.308452137476
Cr -0.006930080553 0.006042255768 2.308452137476
Co 2.311805919447 2.313242255768 0.001252137476
Cr 2.316534583231 -0.001950203939 0.005570331991
Co -0.006930080553 2.313242255768 2.308452137476
Cr 2.304998583231 2.305249796061 2.312770331991
Co 0.004605919447 0.006042255768 0.001252137476
CELL_PARAMETERS (angstrom)
4.6144 0 0
0.000000000000 4.6144 0
-0.023072000000 0.000000000000 4.6144
!End