&CONTROL
calculation = "relax"
nstep = 100
tprnfor = .TRUE. 
tstress = .TRUE. 
etot_conv_thr = 1.0d-5
forc_conv_thr = 1.0d-4
disk_io = 'none'
pseudo_dir = '/opt/QEpot/SSSP_efficiency_pseudos/'
/
!controlend

&SYSTEM
occupations = "smearing"
nat = 8
smearing = "gaussian"
ntyp = 2
ibrav = 0
ecutwfc = 90
ecutrho = 1080
nosym = .TRUE.
degauss = 1.00000e-02
nspin = 2
starting_magnetization(2) = 0.000
starting_magnetization(1) = 0.000
!systemend
/

&ELECTRONS
startingwfc = "atomic+random"
mixing_beta = 2.0000e-01
mixing_mode = "plain"
!mixing_ndim = 4
electron_maxstep = 1000
conv_thr = 1.00000e-8
startingpot = "atomic"
!diagonalization = "cg"
/
!electronsend


&IONS
ion_dynamics = "bfgs"
!ion_temperature = "rescaling"
!tempw = 0
/
!ionsend
!cellend

K_POINTS {automatic}
6 6 6 0 0 0
ATOMIC_SPECIES
Cr  51.9961  cr_pbe_v1.5.uspp.F.UPF
Co  58.933  Co_pbe_v1.2.uspp.F.UPF
ATOMIC_POSITIONS (angstrom)
Cr -0.004866519515 2.308346236367 -0.001813883029
Co 2.313869480485 0.001146236367 2.305386116971
Cr 0.006669480485 0.001146236367 2.305386116971
Co 2.302333480485 2.308346236367 -0.001813883029
Cr 2.312730622213 0.003823742598 0.008952062803
Co -0.004866519515 2.308346236367 2.305386116971
Cr 2.301194622213 2.311023742598 2.316152062803
Co 0.006669480485 0.001146236367 -0.001813883029
CELL_PARAMETERS (angstrom)
4.6144 0 0
-0.023072000000 4.6144 0
0.000000000000 0.000000000000 4.6144
!End