&CONTROL
calculation = "relax"
nstep = 100
tprnfor = .TRUE. 
tstress = .TRUE. 
etot_conv_thr = 1.0d-5
forc_conv_thr = 1.0d-4
disk_io = 'none'
pseudo_dir = '/opt/QEpot/SSSP_efficiency_pseudos/'
/
!controlend

&SYSTEM
occupations = "smearing"
nat = 8
smearing = "gaussian"
ntyp = 2
ibrav = 0
ecutwfc = 90
ecutrho = 1080
nosym = .TRUE.
degauss = 1.00000e-02
nspin = 2
starting_magnetization(2) = 0.000
starting_magnetization(1) = 0.000
!systemend
/

&ELECTRONS
startingwfc = "atomic+random"
mixing_beta = 2.0000e-01
mixing_mode = "plain"
!mixing_ndim = 4
electron_maxstep = 1000
conv_thr = 1.00000e-8
startingpot = "atomic"
!diagonalization = "cg"
/
!electronsend


&IONS
ion_dynamics = "bfgs"
!ion_temperature = "rescaling"
!tempw = 0
/
!ionsend
!cellend

K_POINTS {automatic}
6 6 6 0 0 0
ATOMIC_SPECIES
Cr  51.9961  cr_pbe_v1.5.uspp.F.UPF
Co  58.933  Co_pbe_v1.2.uspp.F.UPF
ATOMIC_POSITIONS (angstrom)
Cr 0.0041485351        2.3008126727        0.0055154387
Co 2.3115328817       -0.0186886926        2.3125504422
Cr 0.0041484609       -0.0179237268        2.3127143529
Co 2.3115330291        2.3000491579        0.0053509057
Cr 2.3087493994       -0.0083670745       -0.0019253760
Co 0.0035277793        2.2893932311        2.3128166955
Cr 2.3087498807        2.2872977894        2.3052741519
Co 0.0035295346       -0.0062716184        0.0056181741
CELL_PARAMETERS (angstrom)
4.6144 0 0
0.000000000000 4.6144 0
0.000000000000 -0.023072000000 4.6144
!End