&CONTROL
calculation = "relax"
nstep = 100
tprnfor = .TRUE. 
tstress = .TRUE. 
etot_conv_thr = 1.0d-5
forc_conv_thr = 1.0d-4
disk_io = 'none'
pseudo_dir = '/opt/QEpot/SSSP_efficiency_pseudos/'
/
!controlend

&SYSTEM
occupations = "smearing"
nat = 8
smearing = "gaussian"
ntyp = 2
ibrav = 0
ecutwfc = 90
ecutrho = 1080
nosym = .TRUE.
degauss = 1.00000e-02
nspin = 2
starting_magnetization(2) = 0.000
starting_magnetization(1) = 0.000
!systemend
/

&ELECTRONS
startingwfc = "atomic+random"
mixing_beta = 2.0000e-01
mixing_mode = "plain"
!mixing_ndim = 4
electron_maxstep = 1000
conv_thr = 1.00000e-8
startingpot = "atomic"
!diagonalization = "cg"
/
!electronsend


&IONS
ion_dynamics = "bfgs"
!ion_temperature = "rescaling"
!tempw = 0
/
!ionsend
!cellend

K_POINTS {automatic}
6 6 6 0 0 0
ATOMIC_SPECIES
Cr  51.9961  cr_pbe_v1.5.uspp.F.UPF
Co  58.933  Co_pbe_v1.2.uspp.F.UPF
ATOMIC_POSITIONS (angstrom)
Cr -0.0001277507        2.3001831129       -0.0061562883
Co 2.3190529189       -0.0055685019        2.3015503945
Cr -0.0001276925       -0.0070168195        2.3010436794
Co 2.3190524197        2.3016308280       -0.0056502619
Cr 2.3135235734        0.0031579593       -0.0026419589
Co -0.0011819096        2.2998973780        2.3009438350
Cr 2.3135235555        2.3103581129        2.3045580492
Co -0.0011815298       -0.0073041750       -0.0062561177
CELL_PARAMETERS (angstrom)
4.637472 0 0
0 4.6144 0
0 0 4.6144
!End