&CONTROL
calculation = "relax"
nstep = 100
tprnfor = .TRUE. 
tstress = .TRUE. 
etot_conv_thr = 1.0d-5
forc_conv_thr = 1.0d-4
disk_io = 'none'
pseudo_dir = '/opt/QEpot/SSSP_efficiency_pseudos/'
/
!controlend

&SYSTEM
occupations = "smearing"
nat = 8
smearing = "gaussian"
ntyp = 2
ibrav = 0
ecutwfc = 90
ecutrho = 1080
nosym = .TRUE.
degauss = 1.00000e-02
nspin = 2
starting_magnetization(2) = 0.000
starting_magnetization(1) = 0.000
!systemend
/

&ELECTRONS
startingwfc = "atomic+random"
mixing_beta = 2.0000e-01
mixing_mode = "plain"
!mixing_ndim = 4
electron_maxstep = 1000
conv_thr = 1.00000e-8
startingpot = "atomic"
!diagonalization = "cg"
/
!electronsend


&IONS
ion_dynamics = "bfgs"
!ion_temperature = "rescaling"
!tempw = 0
/
!ionsend
!cellend

K_POINTS {automatic}
6 6 6 0 0 0
ATOMIC_SPECIES
Cr  51.9961  cr_pbe_v1.5.uspp.F.UPF
Co  58.933  Co_pbe_v1.2.uspp.F.UPF
ATOMIC_POSITIONS (angstrom)
Cr -0.0097575447        2.3102973172        0.0052591633
Co 2.2965715020        0.0077215500        2.3147425908
Cr -0.0097582464        0.0146306702        2.3124504188
Co 2.2965717729        2.3034003865        0.0075457366
Cr 2.3074205188       -0.0053991668       -0.0066697067
Co -0.0108515174        2.3225128251        2.3126105631
Cr 2.3074239923        2.3133430345        2.3005268417
Co -0.0108396242        0.0037713374        0.0054229535
CELL_PARAMETERS (angstrom)
4.6144 0 0
0.000000000000 4.6144 0
0.000000000000 0.023072000000 4.6144
!End