&CONTROL
calculation = "relax"
nstep = 100
tprnfor = .TRUE. 
tstress = .TRUE. 
etot_conv_thr = 1.0d-5
forc_conv_thr = 1.0d-4
disk_io = 'none'
pseudo_dir = '/opt/QEpot/SSSP_efficiency_pseudos/'
/
!controlend

&SYSTEM
occupations = "smearing"
nat = 8
smearing = "gaussian"
ntyp = 2
ibrav = 0
ecutwfc = 90
ecutrho = 1080
nosym = .TRUE.
degauss = 1.00000e-02
nspin = 2
starting_magnetization(2) = 0.000
starting_magnetization(1) = 0.000
!systemend
/

&ELECTRONS
startingwfc = "atomic+random"
mixing_beta = 2.0000e-01
mixing_mode = "plain"
!mixing_ndim = 4
electron_maxstep = 1000
conv_thr = 1.00000e-8
startingpot = "atomic"
!diagonalization = "cg"
/
!electronsend


&IONS
ion_dynamics = "bfgs"
!ion_temperature = "rescaling"
!tempw = 0
/
!ionsend
!cellend

K_POINTS {automatic}
6 6 6 0 0 0
ATOMIC_SPECIES
Cr  51.9961  cr_pbe_v1.5.uspp.F.UPF
Co  58.933  Co_pbe_v1.2.uspp.F.UPF
ATOMIC_POSITIONS (angstrom)
Cr -0.008435062183 2.304263144368 0.002362679783
Co 2.298764937817 -0.002936855632 2.321098679783
Cr -0.008435062183 -0.002936855632 2.321098679783
Co 2.298764937817 2.304263144368 0.002362679783
Cr 2.311076901202 0.005053181736 0.002810639627
Co -0.008435062183 2.304263144368 2.321098679783
Cr 2.311076901202 2.312253181736 2.321546639627
Co -0.008435062183 -0.002936855632 0.002362679783
CELL_PARAMETERS (angstrom)
4.6144 0 0
0 4.6144 0
0 0 4.637472
!End