&CONTROL
calculation = "relax"
nstep = 100
tprnfor = .TRUE. 
tstress = .TRUE. 
etot_conv_thr = 1.0d-5
forc_conv_thr = 1.0d-4
disk_io = 'none'
pseudo_dir = '/opt/QEpot/SSSP_efficiency_pseudos/'
/
!controlend

&SYSTEM
occupations = "smearing"
nat = 8
smearing = "gaussian"
ntyp = 2
ibrav = 0
ecutwfc = 90
ecutrho = 1080
nosym = .TRUE.
degauss = 1.00000e-02
nspin = 2
starting_magnetization(2) = 0.000
starting_magnetization(1) = 0.000
!systemend
/

&ELECTRONS
startingwfc = "atomic+random"
mixing_beta = 2.0000e-01
mixing_mode = "plain"
!mixing_ndim = 4
electron_maxstep = 1000
conv_thr = 1.00000e-8
startingpot = "atomic"
!diagonalization = "cg"
/
!electronsend


&IONS
ion_dynamics = "bfgs"
!ion_temperature = "rescaling"
!tempw = 0
/
!ionsend
!cellend

K_POINTS {automatic}
6 6 6 0 0 0
ATOMIC_SPECIES
Cr  51.9961  cr_pbe_v1.5.uspp.F.UPF
Co  58.933  Co_pbe_v1.2.uspp.F.UPF
ATOMIC_POSITIONS (angstrom)
Cr 0.0167760542        2.3043279441       -0.0033031285
Co 2.3129749457       -0.0034090850        2.3046243984
Cr 0.0052396350       -0.0028720030        2.3038969352
Co 2.3245111468        2.3037907817       -0.0025754825
Cr 2.3071475640       -0.0061652198        0.0014460766
Co 0.0155711342        2.3044260248        2.3037321130
Cr 2.3186837906        2.3010347808        2.3086462975
Co 0.0040347207       -0.0027743553       -0.0034676187
CELL_PARAMETERS (angstrom)
4.6144 0 0
0.023072000000 4.6144 0
0.000000000000 0.000000000000 4.6144
!End