&CONTROL
calculation = "vc-md"
nstep = 102
etot_conv_thr = 1.0d-5
forc_conv_thr = 1.0d-4
disk_io = 'none'
pseudo_dir = '/opt/QEpot/SSSP_efficiency_pseudos/'
/
!controlend

&SYSTEM
occupations = "smearing"
nat = 8
smearing = "gaussian"
ntyp = 2
ibrav = 0
ecutwfc = 90
ecutrho = 1080
nosym = .TRUE.
degauss = 1.00000e-02
nspin = 2
starting_magnetization(2) = -0.000
starting_magnetization(1) = 0.000
!systemend
/

&ELECTRONS
startingwfc = "atomic+random"
mixing_beta = 2.0000e-01
mixing_mode = "plain"
mixing_ndim = 4
electron_maxstep = 1000
conv_thr = 1.00000e-8
startingpot = "atomic"
!diagonalization = "cg"
/
!electronsend


&IONS
ion_dynamics = "beeman"
ion_temperature = "rescaling"
!tempw = 0
/
!ionsend

&CELL
press_conv_thr = 0.1
cell_dynamics = "pr"
!press = 0
/
!cellend

K_POINTS {automatic}
5 5 5 0 0 0
ATOMIC_SPECIES
Mn  54.938  mn_pbe_v1.5.uspp.F.UPF
Fe  55.845  Fe.pbe-spn-kjpaw_psl.0.2.1.UPF
ATOMIC_POSITIONS (angstrom)
Mn 0.000000000000 2.275400000000 0.000000000000
Fe 2.275400000000 0.000000000000 2.275400000000
Mn 0.000000000000 0.000000000000 2.275400000000
Fe 2.275400000000 2.275400000000 0.000000000000
Mn 2.275400000000 0.000000000000 0.000000000000
Fe 0.000000000000 2.275400000000 2.275400000000
Mn 2.275400000000 2.275400000000 2.275400000000
Fe 0.000000000000 0.000000000000 0.000000000000
CELL_PARAMETERS (angstrom)
4.5508 0 0 
0 4.5508 0 
0 0 4.5508 
!End