&CONTROL
calculation = "scf"
disk_io = 'none'
pseudo_dir = '/opt/QEpot/SSSP_efficiency_pseudos/'
tprnfor = .true.
tstress = .true.
verbosity = 'high'
dt = 50
/
&SYSTEM
ntyp =  2
occupations = 'smearing'
smearing = 'gaussian'
degauss =   2.2049585400d-02
ecutrho =   480
ecutwfc =   60 
ibrav = 0
nat = 40
nosym = .TRUE.
starting_magnetization(1) =   1.0000000000d-01
starting_magnetization(2) =   1.0000000000d-01
nspin = 2
/
&ELECTRONS
conv_thr =   2.0000000000d-06
electron_maxstep = 200
mixing_beta =   4.0000000000d-01
/
K_POINTS {automatic}
5 3 3 0 0 0
ATOMIC_SPECIES
Al 26.981538 Al.pbe-n-kjpaw_psl.1.0.0.UPF
O 15.9994 O.pbe-n-kjpaw_psl.0.1.UPF
ATOMIC_POSITIONS {angstrom}
Al 3.26476309331 6.960003313192 0.001553905846
Al 1.57445965633 1.320087126196 4.438361682004
Al 3.998119942614 2.873860414691 4.513184872093
Al 0.876982343549 5.52129234627 -0.014866629141
Al 0.87149092331 2.808331313192 7.047111865846
Al 3.96773182633 5.471759126196 2.529219642004
Al 1.547692112614 7.052188414691 2.604042832093
Al 3.327410173549 1.34296434627 7.030691330859
Al 3.90800645331 5.354812313192 6.244770745846
Al 0.93121629633 2.925278126196 1.726878522004
Al 3.354876582614 1.268669414691 1.801701712093
Al 1.520225703549 7.12648334627 6.228350210859
Al 3.21148239331 3.861243313192 8.949985615846
Al 1.62774035633 4.418847126196 4.432093392004
Al 4.051400642614 8.105100414691 4.506916582093
Al 0.823701643549 0.29005234627 8.933565080859
O 1.57092120331 6.874204313192 7.995414595846
O 3.26830154633 1.405886126196 3.477522372004
O 0.848261832614 2.788061414691 3.552345562093
O 3.99277120331 5.519746313192 7.995414595846
O 0.13830260633 4.088979126196 5.595308922004
O 4.743565372614 4.269968414691 1.192782112093
O 2.27907014331 8.202839313192 1.158501145846
O 2.56015260633 0.077251126196 5.595308922004
O 2.304762422614 5.565283414691 5.749828942093
O 2.53627061331 2.742524313192 1.238197975846
O 0.15525555633 1.372566126196 1.197655752004
O 4.726612422614 6.986381414691 5.749828942093
O 2.46942755331 5.553899313192 1.086863545846
O 2.36979519633 2.726191126196 5.523671322004
O 4.793455482614 1.467756414691 5.598494512093
O 0.04757755331 6.840051313192 1.086863545846
O 4.18763580633 2.750348126196 7.717572822004
O 0.694232172614 5.608599414691 3.315046012093
O 3.07343694331 6.864208313192 3.280765045846
O 1.76578580633 1.415882126196 7.717572822004
O 1.647472332614 4.186668414691 8.095064872093
O 3.19356070331 4.121139313192 3.583433905846
O 0.81254564633 8.323951126196 3.542891682004
O 4.069322332614 0.034996414691 8.095064872093
CELL_PARAMETERS {angstrom}
4.843700 0.00 0.00
0.000000 8.330000 0.00
0.000000 0.000000 8.954700
