&CONTROL
calculation = "vc-relax"
nstep = 100
etot_conv_thr = 1.0d-5
forc_conv_thr = 1.0d-4
disk_io = 'none'
pseudo_dir = '/opt/QEpot/SSSP_efficiency_pseudos/'
/
!controlend

&SYSTEM
occupations = "smearing"
nat = 2
smearing = "gaussian"
ntyp = 2
ibrav = 2
a = 3.62285554461893
ecutwfc = 90
ecutrho = 1080
nosym = .TRUE.
degauss = 1.00000e-02
nspin = 2
starting_magnetization(2) =  0.2
starting_magnetization(1) =  0.2
!systemend
/

&ELECTRONS
startingwfc = "atomic+random"
mixing_beta = 2.0000e-01
mixing_mode = "plain"
!mixing_ndim = 4
electron_maxstep = 1000
conv_thr = 1.00000e-8
startingpot = "atomic"
!diagonalization = "cg"
/
!electronsend


&IONS
ion_dynamics = "bfgs"
!ion_temperature = "rescaling"
!tempw = 0
/
!ionsend

&CELL
press_conv_thr = 0.1
cell_dynamics = "bfgs"
!press = 0
/
!cellend

K_POINTS {automatic}
10 10 10 0 0 0
ATOMIC_SPECIES
Fe  55.845  Fe.pbe-spn-kjpaw_psl.0.2.1.UPF
Cr  51.9961  cr_pbe_v1.5.uspp.F.UPF
ATOMIC_POSITIONS (alat)
Fe  0.5 0.5 0.5
Cr  0 0 0
!CELL_PARAMETERS (alat)
!End