&CONTROL
calculation = "relax"
nstep = 100
tprnfor = .TRUE. 
tstress = .TRUE. 
etot_conv_thr = 1.0d-5
forc_conv_thr = 1.0d-4
disk_io = 'none'
pseudo_dir = '/opt/QEpot/SSSP_efficiency_pseudos/'
/
!controlend

&SYSTEM
occupations = "smearing"
nat = 8
smearing = "gaussian"
ntyp = 2
ibrav = 0
ecutwfc = 90
ecutrho = 1080
nosym = .TRUE.
degauss = 1.00000e-02
nspin = 2
starting_magnetization(2) = 0.000
starting_magnetization(1) = -0.000
!systemend
/

&ELECTRONS
startingwfc = "atomic+random"
mixing_beta = 2.0000e-01
mixing_mode = "plain"
!mixing_ndim = 4
electron_maxstep = 1000
conv_thr = 1.00000e-8
startingpot = "atomic"
!diagonalization = "cg"
/
!electronsend


&IONS
ion_dynamics = "bfgs"
!ion_temperature = "rescaling"
!tempw = 0
/
!ionsend
!cellend

K_POINTS {automatic}
6 6 6 0 0 0
ATOMIC_SPECIES
Fe  55.845  Fe.pbe-spn-kjpaw_psl.0.2.1.UPF
Cr  51.9961  cr_pbe_v1.5.uspp.F.UPF
ATOMIC_POSITIONS (angstrom)
Fe -0.008212026917 2.306953662209 -0.002429808261
Cr 2.277551723083 0.009703662209 2.294820191739
Fe -0.019698276917 0.009703662209 2.294820191739
Cr 2.289037973083 2.306953662209 -0.002429808261
Fe 2.295542328622 -0.005356505676 -0.008978211132
Cr -0.019698276917 2.306953662209 2.294820191739
Fe 2.284056078622 2.291893494324 2.288271788868
Cr -0.008212026917 0.009703662209 -0.002429808261
CELL_PARAMETERS (angstrom)
4.5945 0 0
0.000000000000 4.5945 0
-0.022972500000 0.000000000000 4.5945
!End