&CONTROL
calculation = "relax"
nstep = 100
tprnfor = .TRUE. 
tstress = .TRUE. 
etot_conv_thr = 1.0d-5
forc_conv_thr = 1.0d-4
disk_io = 'none'
pseudo_dir = '/opt/QEpot/SSSP_efficiency_pseudos/'
/
!controlend

&SYSTEM
occupations = "smearing"
nat = 8
smearing = "gaussian"
ntyp = 2
ibrav = 0
ecutwfc = 90
ecutrho = 1080
nosym = .TRUE.
degauss = 1.00000e-02
nspin = 2
starting_magnetization(2) = 0.000
starting_magnetization(1) = -0.000
!systemend
/

&ELECTRONS
startingwfc = "atomic+random"
mixing_beta = 2.0000e-01
mixing_mode = "plain"
!mixing_ndim = 4
electron_maxstep = 1000
conv_thr = 1.00000e-8
startingpot = "atomic"
!diagonalization = "cg"
/
!electronsend


&IONS
ion_dynamics = "bfgs"
!ion_temperature = "rescaling"
!tempw = 0
/
!ionsend
!cellend

K_POINTS {automatic}
6 6 6 0 0 0
ATOMIC_SPECIES
Fe  55.845  Fe.pbe-spn-kjpaw_psl.0.2.1.UPF
Cr  51.9961  cr_pbe_v1.5.uspp.F.UPF
ATOMIC_POSITIONS (angstrom)
Fe -0.005765696853 2.299703761066 0.005727635972
Cr 2.291484303147 -0.009032488934 2.302977635972
Fe -0.005765696853 -0.009032488934 2.302977635972
Cr 2.291484303147 2.299703761066 0.005727635972
Fe 2.289297470918 -0.00745997393 0.000102194955
Cr -0.005765696853 2.288217511066 2.302977635972
Fe 2.289297470918 2.27830377607 2.297352194955
Cr -0.005765696853 0.002453761066 0.005727635972
CELL_PARAMETERS (angstrom)
4.5945 0 0
0.000000000000 4.5945 0
0.000000000000 -0.022972500000 4.5945
!End