&CONTROL
calculation = "relax"
nstep = 100
tprnfor = .TRUE. 
tstress = .TRUE. 
etot_conv_thr = 1.0d-5
forc_conv_thr = 1.0d-4
disk_io = 'none'
pseudo_dir = '/opt/QEpot/SSSP_efficiency_pseudos/'
/
!controlend

&SYSTEM
occupations = "smearing"
nat = 8
smearing = "gaussian"
ntyp = 2
ibrav = 0
ecutwfc = 90
ecutrho = 1080
nosym = .TRUE.
degauss = 1.00000e-02
nspin = 2
starting_magnetization(2) = 0.000
starting_magnetization(1) = -0.000
!systemend
/

&ELECTRONS
startingwfc = "atomic+random"
mixing_beta = 2.0000e-01
mixing_mode = "plain"
!mixing_ndim = 4
electron_maxstep = 1000
conv_thr = 1.00000e-8
startingpot = "atomic"
!diagonalization = "cg"
/
!electronsend


&IONS
ion_dynamics = "bfgs"
!ion_temperature = "rescaling"
!tempw = 0
/
!ionsend
!cellend

K_POINTS {automatic}
6 6 6 0 0 0
ATOMIC_SPECIES
Fe  55.845  Fe.pbe-spn-kjpaw_psl.0.2.1.UPF
Cr  51.9961  cr_pbe_v1.5.uspp.F.UPF
ATOMIC_POSITIONS (angstrom)
Fe -0.007799299805 2.298898062503 0.000438864589
Cr 2.289450700195 0.001648062503 2.286202614589
Fe -0.007799299805 0.001648062503 2.286202614589
Cr 2.289450700195 2.298898062503 0.000438864589
Fe 2.302864346545 0.000739542612 0.00835485154
Cr -0.007799299805 2.298898062503 2.286202614589
Fe 2.302864346545 2.297989542612 2.29411860154
Cr -0.007799299805 0.001648062503 0.000438864589
CELL_PARAMETERS (angstrom)
4.5945 0 0
0 4.5945 0
0 0 4.5715275
!End