&CONTROL
calculation = "relax"
nstep = 100
tprnfor = .TRUE. 
tstress = .TRUE. 
etot_conv_thr = 1.0d-5
forc_conv_thr = 1.0d-4
disk_io = 'none'
pseudo_dir = '/opt/QEpot/SSSP_efficiency_pseudos/'
/
!controlend

&SYSTEM
occupations = "smearing"
nat = 8
smearing = "gaussian"
ntyp = 2
ibrav = 0
ecutwfc = 90
ecutrho = 1080
nosym = .TRUE.
degauss = 1.00000e-02
nspin = 2
starting_magnetization(2) = 0.000
starting_magnetization(1) = -0.000
!systemend
/

&ELECTRONS
startingwfc = "atomic+random"
mixing_beta = 2.0000e-01
mixing_mode = "plain"
!mixing_ndim = 4
electron_maxstep = 1000
conv_thr = 1.00000e-8
startingpot = "atomic"
!diagonalization = "cg"
/
!electronsend


&IONS
ion_dynamics = "bfgs"
!ion_temperature = "rescaling"
!tempw = 0
/
!ionsend
!cellend

K_POINTS {automatic}
6 6 6 0 0 0
ATOMIC_SPECIES
Fe  55.845  Fe.pbe-spn-kjpaw_psl.0.2.1.UPF
Cr  51.9961  cr_pbe_v1.5.uspp.F.UPF
ATOMIC_POSITIONS (angstrom)
Fe -0.007959355494 2.306733589622 -0.006391031128
Cr 2.300776894506 0.009483589622 2.290858968872
Fe 0.003526894506 0.009483589622 2.290858968872
Cr 2.289290644506 2.306733589622 -0.006391031128
Fe 2.306952095846 -0.009177348253 0.004357132319
Cr -0.007959355494 2.306733589622 2.290858968872
Fe 2.295465845846 2.288072651747 2.301607132319
Cr 0.003526894506 0.009483589622 -0.006391031128
CELL_PARAMETERS (angstrom)
4.5945 0 0
-0.022972500000 4.5945 0
0.000000000000 0.000000000000 4.5945
!End