&CONTROL
calculation = "relax"
nstep = 100
tprnfor = .TRUE. 
tstress = .TRUE. 
etot_conv_thr = 1.0d-5
forc_conv_thr = 1.0d-4
disk_io = 'none'
pseudo_dir = '/opt/QEpot/SSSP_efficiency_pseudos/'
/
!controlend

&SYSTEM
occupations = "smearing"
nat = 8
smearing = "gaussian"
ntyp = 2
ibrav = 0
ecutwfc = 90
ecutrho = 1080
nosym = .TRUE.
degauss = 1.00000e-02
nspin = 2
starting_magnetization(2) = 0.000
starting_magnetization(1) = -0.000
!systemend
/

&ELECTRONS
startingwfc = "atomic+random"
mixing_beta = 2.0000e-01
mixing_mode = "plain"
!mixing_ndim = 4
electron_maxstep = 1000
conv_thr = 1.00000e-8
startingpot = "atomic"
!diagonalization = "cg"
/
!electronsend


&IONS
ion_dynamics = "bfgs"
!ion_temperature = "rescaling"
!tempw = 0
/
!ionsend
!cellend

K_POINTS {automatic}
6 6 6 0 0 0
ATOMIC_SPECIES
Fe  55.845  Fe.pbe-spn-kjpaw_psl.0.2.1.UPF
Cr  51.9961  cr_pbe_v1.5.uspp.F.UPF
ATOMIC_POSITIONS (angstrom)
Fe 0.004225515592 2.304241802721 -0.005076879699
Cr 2.301475515592 0.006991802721 2.303659370301
Fe 0.004225515592 0.006991802721 2.303659370301
Cr 2.301475515592 2.304241802721 -0.005076879699
Fe 2.30524088946 -0.00942504507 -3.536282e-05
Cr 0.004225515592 2.304241802721 2.303659370301
Fe 2.30524088946 2.28782495493 2.30870088718
Cr 0.004225515592 0.006991802721 -0.005076879699
CELL_PARAMETERS (angstrom)
4.5945 0 0
0 4.5945 0
0 0 4.6174725
!End