&CONTROL
calculation = "relax"
nstep = 100
tprnfor = .TRUE. 
tstress = .TRUE. 
etot_conv_thr = 1.0d-5
forc_conv_thr = 1.0d-4
disk_io = 'none'
pseudo_dir = '/opt/QEpot/SSSP_efficiency_pseudos/'
/
!controlend

&SYSTEM
occupations = "smearing"
nat = 8
smearing = "gaussian"
ntyp = 2
ibrav = 0
ecutwfc = 90
ecutrho = 1080
nosym = .TRUE.
degauss = 1.00000e-02
nspin = 2
starting_magnetization(2) = 0.000
starting_magnetization(1) = -0.000
!systemend
/

&ELECTRONS
startingwfc = "atomic+random"
mixing_beta = 2.0000e-01
mixing_mode = "plain"
!mixing_ndim = 4
electron_maxstep = 1000
conv_thr = 1.00000e-8
startingpot = "atomic"
!diagonalization = "cg"
/
!electronsend


&IONS
ion_dynamics = "bfgs"
!ion_temperature = "rescaling"
!tempw = 0
/
!ionsend
!cellend

K_POINTS {automatic}
6 6 6 0 0 0
ATOMIC_SPECIES
Fe  55.845  Fe.pbe-spn-kjpaw_psl.0.2.1.UPF
Cr  51.9961  cr_pbe_v1.5.uspp.F.UPF
ATOMIC_POSITIONS (angstrom)
Fe 0.005261645386 2.292446168509 -0.002306368293
Cr 2.291025395386 -0.004803831491 2.294943631707
Fe -0.006224604614 -0.004803831491 2.294943631707
Cr 2.302511645386 2.292446168509 -0.002306368293
Fe 2.295666653458 0.009176159492 -0.003390366625
Cr 0.005261645386 2.292446168509 2.294943631707
Fe 2.307152903458 2.306426159492 2.293859633375
Cr -0.006224604614 -0.004803831491 -0.002306368293
CELL_PARAMETERS (angstrom)
4.5945 0 0
0.022972500000 4.5945 0
0.000000000000 0.000000000000 4.5945
!End