&CONTROL
calculation = "relax"
nstep = 100
tprnfor = .TRUE. 
tstress = .TRUE. 
etot_conv_thr = 1.0d-5
forc_conv_thr = 1.0d-4
disk_io = 'none'
pseudo_dir = '/opt/QEpot/SSSP_efficiency_pseudos/'
/
!controlend

&SYSTEM
occupations = "smearing"
nat = 8
smearing = "gaussian"
ntyp = 2
ibrav = 0
ecutwfc = 90
ecutrho = 1080
nosym = .TRUE.
degauss = 1.00000e-02
nspin = 2
starting_magnetization(2) = 0.000
starting_magnetization(1) = -0.000
!systemend
/

&ELECTRONS
startingwfc = "atomic+random"
mixing_beta = 2.0000e-01
mixing_mode = "plain"
!mixing_ndim = 4
electron_maxstep = 1000
conv_thr = 1.00000e-8
startingpot = "atomic"
!diagonalization = "cg"
/
!electronsend


&IONS
ion_dynamics = "bfgs"
!ion_temperature = "rescaling"
!tempw = 0
/
!ionsend
!cellend

K_POINTS {automatic}
6 6 6 0 0 0
ATOMIC_SPECIES
Fe  55.845  Fe.pbe-spn-kjpaw_psl.0.2.1.UPF
Cr  51.9961  cr_pbe_v1.5.uspp.F.UPF
ATOMIC_POSITIONS (angstrom)
Fe -0.003061408139 2.290113795976 0.003145599171
Cr 2.294188591861 0.004350045976 2.300395599171
Fe -0.003061408139 0.004350045976 2.300395599171
Cr 2.294188591861 2.290113795976 0.003145599171
Fe 2.292665621699 -0.00598244738 -0.002639287616
Cr -0.003061408139 2.301600045976 2.300395599171
Fe 2.292665621699 2.30275380262 2.294610712384
Cr -0.003061408139 -0.007136204024 0.003145599171
CELL_PARAMETERS (angstrom)
4.5945 0 0
0.000000000000 4.5945 0
0.000000000000 0.022972500000 4.5945
!End