&CONTROL
calculation = "vc-md"
nstep = 102
etot_conv_thr = 1.0d-5
forc_conv_thr = 1.0d-4
disk_io = 'none'
pseudo_dir = '/opt/QEpot/SSSP_efficiency_pseudos/'
/
!controlend

&SYSTEM
occupations = "smearing"
nat = 8
smearing = "gaussian"
ntyp = 2
ibrav = 0
ecutwfc = 90
ecutrho = 1080
nosym = .TRUE.
degauss = 1.00000e-02
nspin = 2
starting_magnetization(2) = 0.000
starting_magnetization(1) = 0.000
!systemend
/

&ELECTRONS
startingwfc = "atomic+random"
mixing_beta = 2.0000e-01
mixing_mode = "plain"
mixing_ndim = 4
electron_maxstep = 1000
conv_thr = 1.00000e-8
startingpot = "atomic"
!diagonalization = "cg"
/
!electronsend


&IONS
ion_dynamics = "beeman"
ion_temperature = "rescaling"
tempw = 600
/
!ionsend

&CELL
press_conv_thr = 0.1
cell_dynamics = "pr"
press = 0.001
/
!cellend

K_POINTS {automatic}
5 5 5 0 0 0
ATOMIC_SPECIES
Ni  58.693  ni_pbe_v1.4.uspp.F.UPF
Mn  54.938  mn_pbe_v1.5.uspp.F.UPF
ATOMIC_POSITIONS (angstrom)
Ni 0.000000000000 2.317900000000 0.000000000000
Mn 2.317900000000 0.000000000000 2.317900000000
Ni 0.000000000000 0.000000000000 2.317900000000
Mn 2.317900000000 2.317900000000 0.000000000000
Ni 2.317900000000 0.000000000000 0.000000000000
Mn 0.000000000000 2.317900000000 2.317900000000
Ni 2.317900000000 2.317900000000 2.317900000000
Mn 0.000000000000 0.000000000000 0.000000000000
CELL_PARAMETERS (angstrom)
4.6358 0 0 
0 4.6358 0 
0 0 4.6358 
!End