&CONTROL
calculation = "vc-relax"
nstep = 1000
etot_conv_thr = 1.0d-5
forc_conv_thr = 1.0d-4
disk_io = 'none'
pseudo_dir = '/opt/QEpot/SSSP_precision_pseudos/'
/
!controlend

&SYSTEM
occupations = "smearing"
nat = 4
smearing = "gaussian"
ntyp = 1
ibrav = 0
ecutwfc = 90
ecutrho = 1080
nosym = .TRUE.
degauss = 1.00000e-02
nspin = 2
starting_magnetization(1) =  0.2
!systemend
/

&ELECTRONS
startingwfc = "atomic+random"
mixing_beta = 2.0000e-01
mixing_mode = "plain"
!mixing_ndim = 4
electron_maxstep = 1000
conv_thr = 1.00000e-8
startingpot = "atomic"
!diagonalization = "cg"
/
!electronsend


&IONS
ion_dynamics = "bfgs"
!ion_temperature = "rescaling"
!tempw = 0
/
!ionsend

&CELL
press_conv_thr = 0.1
cell_dynamics = "bfgs"
!press = 0
/
!cellend

K_POINTS {automatic}
5 5 5 0 0 0
ATOMIC_SPECIES
Fe  55.845  Fe.pbe-spn-kjpaw_psl.0.2.1.UPF
ATOMIC_POSITIONS {angstrom}
Fe 0.915699177068 1.186087846693 1.96614272985
Fe 2.453139985297 -0.000360683841 7.859422343895
Fe 0.915988973108 1.185857628485 5.89677750122
Fe 2.452853258113 -0.000132833737 3.928708968319
CELL_PARAMETERS {angstrom}
2.4526872 0 0
-0.621779843649 2.372564967138 0
0.000561084681 -0.000446152842 7.860420617313
!End