&CONTROL
calculation = "relax"
nstep = 100
tprnfor = .TRUE. 
tstress = .TRUE. 
etot_conv_thr = 1.0d-5
forc_conv_thr = 1.0d-4
disk_io = 'none'
pseudo_dir = '/opt/QEpot/SSSP_efficiency_pseudos/'
/
!controlend

&SYSTEM
occupations = "smearing"
nat = 8
smearing = "gaussian"
ntyp = 2
ibrav = 0
ecutwfc = 90
ecutrho = 1080
nosym = .TRUE.
degauss = 1.00000e-02
nspin = 2
starting_magnetization(2) = -0.000
starting_magnetization(1) = 0.000
!systemend
/

&ELECTRONS
startingwfc = "atomic+random"
mixing_beta = 2.0000e-01
mixing_mode = "plain"
!mixing_ndim = 4
electron_maxstep = 1000
conv_thr = 1.00000e-8
startingpot = "atomic"
!diagonalization = "cg"
/
!electronsend


&IONS
ion_dynamics = "bfgs"
!ion_temperature = "rescaling"
!tempw = 0
/
!ionsend
!cellend

K_POINTS {automatic}
6 6 6 0 0 0
ATOMIC_SPECIES
Ni  58.693  ni_pbe_v1.4.uspp.F.UPF
Fe  55.845  Fe.pbe-spn-kjpaw_psl.0.2.1.UPF
ATOMIC_POSITIONS (angstrom)
Ni 0.008407878029 2.302730400284 -0.008866849389
Fe 2.300688878029 -0.001069599716 2.294933150611
Ni -0.003111121971 -0.001069599716 2.294933150611
Fe 2.312207878029 2.302730400284 -0.008866849389
Ni 2.307717838851 -0.006337467363 0.010028437953
Fe -0.003111121971 2.302730400284 2.294933150611
Ni 2.296198838851 2.297462532637 2.313828437953
Fe 0.008407878029 -0.001069599716 -0.008866849389
CELL_PARAMETERS (angstrom)
4.6076 0 0
0.000000000000 4.6076 0
-0.023038000000 0.000000000000 4.6076
!End