&CONTROL
calculation = "relax"
nstep = 100
tprnfor = .TRUE. 
tstress = .TRUE. 
etot_conv_thr = 1.0d-5
forc_conv_thr = 1.0d-4
disk_io = 'none'
pseudo_dir = '/opt/QEpot/SSSP_efficiency_pseudos/'
/
!controlend

&SYSTEM
occupations = "smearing"
nat = 8
smearing = "gaussian"
ntyp = 2
ibrav = 0
ecutwfc = 90
ecutrho = 1080
nosym = .TRUE.
degauss = 1.00000e-02
nspin = 2
starting_magnetization(2) = -0.000
starting_magnetization(1) = 0.000
!systemend
/

&ELECTRONS
startingwfc = "atomic+random"
mixing_beta = 2.0000e-01
mixing_mode = "plain"
!mixing_ndim = 4
electron_maxstep = 1000
conv_thr = 1.00000e-8
startingpot = "atomic"
!diagonalization = "cg"
/
!electronsend


&IONS
ion_dynamics = "bfgs"
!ion_temperature = "rescaling"
!tempw = 0
/
!ionsend
!cellend

K_POINTS {automatic}
6 6 6 0 0 0
ATOMIC_SPECIES
Ni  58.693  ni_pbe_v1.4.uspp.F.UPF
Fe  55.845  Fe.pbe-spn-kjpaw_psl.0.2.1.UPF
ATOMIC_POSITIONS (angstrom)
Ni -0.001843194543 2.296886000692 -0.007201540254
Fe 2.313475805457 -0.006913999308 2.296598459746
Ni 0.009675805457 -0.006913999308 2.296598459746
Fe 2.301956805457 2.296886000692 -0.007201540254
Ni 2.313571681642 0.002227144525 -0.003370261091
Fe -0.001843194543 2.296886000692 2.296598459746
Ni 2.302052681642 2.306027144525 2.300429738909
Fe 0.009675805457 -0.006913999308 -0.007201540254
CELL_PARAMETERS (angstrom)
4.6076 0 0
-0.023038000000 4.6076 0
0.000000000000 0.000000000000 4.6076
!End