&CONTROL
calculation = "relax"
nstep = 100
tprnfor = .TRUE. 
tstress = .TRUE. 
etot_conv_thr = 1.0d-5
forc_conv_thr = 1.0d-4
disk_io = 'none'
pseudo_dir = '/opt/QEpot/SSSP_efficiency_pseudos/'
/
!controlend

&SYSTEM
occupations = "smearing"
nat = 8
smearing = "gaussian"
ntyp = 2
ibrav = 0
ecutwfc = 90
ecutrho = 1080
nosym = .TRUE.
degauss = 1.00000e-02
nspin = 2
starting_magnetization(2) = -0.000
starting_magnetization(1) = 0.000
!systemend
/

&ELECTRONS
startingwfc = "atomic+random"
mixing_beta = 2.0000e-01
mixing_mode = "plain"
!mixing_ndim = 4
electron_maxstep = 1000
conv_thr = 1.00000e-8
startingpot = "atomic"
!diagonalization = "cg"
/
!electronsend


&IONS
ion_dynamics = "bfgs"
!ion_temperature = "rescaling"
!tempw = 0
/
!ionsend
!cellend

K_POINTS {automatic}
6 6 6 0 0 0
ATOMIC_SPECIES
Ni  58.693  ni_pbe_v1.4.uspp.F.UPF
Fe  55.845  Fe.pbe-spn-kjpaw_psl.0.2.1.UPF
ATOMIC_POSITIONS (angstrom)
Ni 0.016798735859 2.300834603035 0.008236563015
Fe 2.309079735859 -0.002965396965 2.312036563015
Ni 0.005279735859 -0.002965396965 2.312036563015
Fe 2.320598735859 2.300834603035 0.008236563015
Ni 2.312511668151 -0.008388088999 -0.002328025349
Fe 0.016798735859 2.300834603035 2.312036563015
Ni 2.324030668151 2.295411911001 2.301471974651
Fe 0.005279735859 -0.002965396965 0.008236563015
CELL_PARAMETERS (angstrom)
4.6076 0 0
0.023038000000 4.6076 0
0.000000000000 0.000000000000 4.6076
!End