&CONTROL
calculation = "relax"
nstep = 100
tprnfor = .TRUE. 
tstress = .TRUE. 
etot_conv_thr = 1.0d-5
forc_conv_thr = 1.0d-4
disk_io = 'none'
pseudo_dir = '/opt/QEpot/SSSP_efficiency_pseudos/'
/
!controlend

&SYSTEM
occupations = "smearing"
nat = 8
smearing = "gaussian"
ntyp = 2
ibrav = 0
ecutwfc = 90
ecutrho = 1080
nosym = .TRUE.
degauss = 1.00000e-02
nspin = 2
starting_magnetization(2) = -0.000
starting_magnetization(1) = 0.000
!systemend
/

&ELECTRONS
startingwfc = "atomic+random"
mixing_beta = 2.0000e-01
mixing_mode = "plain"
!mixing_ndim = 4
electron_maxstep = 1000
conv_thr = 1.00000e-8
startingpot = "atomic"
!diagonalization = "cg"
/
!electronsend


&IONS
ion_dynamics = "bfgs"
!ion_temperature = "rescaling"
!tempw = 0
/
!ionsend
!cellend

K_POINTS {automatic}
6 6 6 0 0 0
ATOMIC_SPECIES
Ni  58.693  ni_pbe_v1.4.uspp.F.UPF
Fe  55.845  Fe.pbe-spn-kjpaw_psl.0.2.1.UPF
ATOMIC_POSITIONS (angstrom)
Ni 0.007365055193 2.302487414667 0.004251645767
Fe 2.311165055193 0.010206414667 2.308051645767
Ni 0.007365055193 0.010206414667 2.308051645767
Fe 2.311165055193 2.302487414667 0.004251645767
Ni 2.301912163567 -0.005018052512 0.00896862842
Fe 0.007365055193 2.314006414667 2.308051645767
Ni 2.301912163567 2.310300947488 2.31276862842
Fe 0.007365055193 -0.001312585333 0.004251645767
CELL_PARAMETERS (angstrom)
4.6076 0 0
0.000000000000 4.6076 0
0.000000000000 0.023038000000 4.6076
!End