&CONTROL
calculation = "vc-relax"
nstep = 1000
etot_conv_thr = 1.0d-5
forc_conv_thr = 1.0d-4
disk_io = 'none'
pseudo_dir = '/opt/QEpot/SSSP_precision_pseudos/'
/
!controlend

&SYSTEM
occupations = "smearing"
nat = 2
smearing = "gaussian"
ntyp = 1
ibrav = 0
ecutwfc = 90
ecutrho = 1080
nosym = .TRUE.
degauss = 1.00000e-02
nspin = 2
starting_magnetization(1) =  0.2
!systemend
/

&ELECTRONS
startingwfc = "atomic+random"
mixing_beta = 2.0000e-01
mixing_mode = "plain"
!mixing_ndim = 4
electron_maxstep = 1000
conv_thr = 1.00000e-8
startingpot = "atomic"
!diagonalization = "cg"
/
!electronsend


&IONS
ion_dynamics = "bfgs"
!ion_temperature = "rescaling"
!tempw = 0
/
!ionsend

&CELL
press_conv_thr = 0.1
cell_dynamics = "bfgs"
!press = 0
/
!cellend

K_POINTS {automatic}
5 5 5 0 0 0
ATOMIC_SPECIES
Fe  55.845  Fe.pbe-spn-kjpaw_psl.0.2.1.UPF
ATOMIC_POSITIONS {angstrom}
Fe 1.232879184779 0.711801705606 2.925144
Fe -1.039074e-06 1.423605546619 0.975048
CELL_PARAMETERS {angstrom}
2.46575571 0 0
-1.232877564295 2.135407252225 0
0.000000000000 0.000000000000 3.900192
!End