&CONTROL
calculation = "scf"
etot_conv_thr = 1.0d-5
forc_conv_thr = 1.0d-4
disk_io = 'none'
tprnfor = .true.
tstress = .true.
pseudo_dir = '/opt/QEpot/SSSP_efficiency_pseudos/'
!controlend
/

&SYSTEM
occupations = "smearing"
nat = 4
smearing = "gaussian"
ntyp = 1
ibrav = 0
ecutwfc = 30
ecutrho = 240
nosym = .TRUE.
degauss = 1.00000e-02
nspin = 2
starting_magnetization(1) =  2.00000e-01
!systemend
/

&ELECTRONS
startingwfc = "atomic+random"
mixing_beta = 2.0000e-01
mixing_mode = "plain"
!mixing_ndim = 4
electron_maxstep = 150
conv_thr = 1.00000e-8
startingpot = "atomic"
!diagonalization = "cg"
!electronsend
/

&IONS
ion_dynamics = "bfgs"
!ion_temperature = "rescaling"
!tempw = 0
!ionsend
/

&CELL
!press_conv_thr = 0.1
!cell_dynamics = "bfgs"
!cell_dofree = "xyz"
!press = 0
!cellend
/

K_POINTS {automatic}
21 21 21 0 0 0
ATOMIC_SPECIES
Al  26.981539  Al.pbe-n-kjpaw_psl.1.0.0.UPF
ATOMIC_POSITIONS {angstrom}
Al -0.196411 4.0503 4.08464
Al 0.00332181 1.95995 2.02247
Al 1.99704 -0.0339037 1.9448
Al 2.11231 2.14191 -0.0292691
CELL_PARAMETERS {angstrom}
4.16371893186144 0 0
0.0000000000000000e+00 3.99191747918718 0
0.0000000000000000e+00 0.0000000000000000e+00 3.9553634388219
!End