&CONTROL
calculation = "vc-relax"
nstep = 1000
etot_conv_thr = 1.0d-5
forc_conv_thr = 1.0d-4
disk_io = 'none'
pseudo_dir = '/opt/QEpot/SSSP_precision_pseudos/'
/
!controlend

&SYSTEM
occupations = "smearing"
nat = 28
smearing = "gaussian"
ntyp = 1
ibrav = 0
ecutwfc = 90
ecutrho = 1080
nosym = .TRUE.
degauss = 1.00000e-02
nspin = 2
starting_magnetization(1) =  0.2
!systemend
/

&ELECTRONS
startingwfc = "atomic+random"
mixing_beta = 2.0000e-01
mixing_mode = "plain"
!mixing_ndim = 4
electron_maxstep = 1000
conv_thr = 1.00000e-8
startingpot = "atomic"
!diagonalization = "cg"
/
!electronsend


&IONS
ion_dynamics = "bfgs"
!ion_temperature = "rescaling"
!tempw = 0
/
!ionsend

&CELL
press_conv_thr = 0.1
cell_dynamics = "bfgs"
!press = 0
/
!cellend

K_POINTS {automatic}
3 3 3 0 0 0
ATOMIC_SPECIES
Fe  55.845  Fe.pbe-spn-kjpaw_psl.0.2.1.UPF
ATOMIC_POSITIONS {angstrom}
Fe 1.856192460588 1.856192460588 1.163672485248
Fe 6.761708539412 6.761708539412 1.163672485248
Fe 6.165142960588 2.452758039412 3.450908485248
Fe 2.452758039412 6.165142960588 3.450908485248
Fe 6.761708539412 6.761708539412 3.410799514752
Fe 1.856192460588 1.856192460588 3.410799514752
Fe 2.452758039412 6.165142960588 1.123563514752
Fe 6.165142960588 2.452758039412 1.123563514752
Fe 8.347109314778 1.975774454864 0
Fe 0.270791685222 6.642126545136 0
Fe 4.579742185222 6.284724954864 2.287236
Fe 4.038158814778 2.333176045136 2.287236
Fe 1.975774454864 8.347109314778 0
Fe 6.642126545136 0.270791685222 0
Fe 6.284724954864 4.579742185222 2.287236
Fe 2.333176045136 4.038158814778 2.287236
Fe 7.469626017057 4.473492083793 0
Fe 1.148274982943 4.144408916207 0
Fe 5.457225482943 0.164541583793 2.287236
Fe 3.160675517057 8.453359416207 2.287236
Fe 4.473492083793 7.469626017057 0
Fe 4.144408916207 1.148274982943 0
Fe 0.164541583793 5.457225482943 2.287236
Fe 8.453359416207 3.160675517057 2.287236
Fe 5.128443941892 5.128443941892 0
Fe 3.489457058108 3.489457058108 0
Fe 0.819493441892 7.798407558108 2.287236
Fe 7.798407558108 0.819493441892 2.287236
CELL_PARAMETERS {angstrom}
8.617901 0 0
0 8.617901 0
0 0 4.574472
!End