&CONTROL
calculation = "vc-md"
nstep = 102
etot_conv_thr = 1.0d-5
forc_conv_thr = 1.0d-4
disk_io = 'none'
pseudo_dir = '/opt/QEpot/SSSP_efficiency_pseudos/'
/
!controlend

&SYSTEM
occupations = "smearing"
nat = 8
smearing = "gaussian"
ntyp = 2
ibrav = 0
ecutwfc = 90
ecutrho = 1080
nosym = .TRUE.
degauss = 1.00000e-02
nspin = 2
starting_magnetization(2) = 0.2
starting_magnetization(1) = 0.2
!systemend
/

&ELECTRONS
startingwfc = "atomic+random"
mixing_beta = 2.0000e-01
mixing_mode = "plain"
!mixing_ndim = 4
electron_maxstep = 1000
conv_thr = 1.00000e-10
startingpot = "atomic"
diagonalization = "cg"
/
!electronsend


&IONS
ion_dynamics = "beeman"
ion_temperature = "rescaling"
tempw = 600
/
!ionsend

&CELL
press_conv_thr = 0.1
cell_dynamics = "pr"
press = 0.001
/
!cellend

K_POINTS {automatic}
5 5 5 0 0 0
ATOMIC_SPECIES
Mn  54.938  mn_pbe_v1.5.uspp.F.UPF
Co  58.933  Co_pbe_v1.2.uspp.F.UPF
ATOMIC_POSITIONS (angstrom)
Mn 0.000000000000 2.286500000000 0.000000000000
Co 2.286500000000 0.000000000000 2.286500000000
Mn 0.000000000000 0.000000000000 2.286500000000
Co 2.286500000000 2.286500000000 0.000000000000
Mn 2.286500000000 0.000000000000 0.000000000000
Co 0.000000000000 2.286500000000 2.286500000000
Mn 2.286500000000 2.286500000000 2.286500000000
Co 0.000000000000 0.000000000000 0.000000000000
CELL_PARAMETERS (angstrom)
4.573 0 0 
0 4.573 0 
0 0 4.573 
!End