&CONTROL
calculation = "relax"
nstep = 100
tprnfor = .TRUE. 
tstress = .TRUE. 
etot_conv_thr = 1.0d-5
forc_conv_thr = 1.0d-4
disk_io = 'none'
pseudo_dir = '/opt/QEpot/SSSP_efficiency_pseudos/'
/
!controlend

&SYSTEM
occupations = "smearing"
nat = 8
smearing = "gaussian"
ntyp = 2
ibrav = 0
ecutwfc = 90
ecutrho = 1080
nosym = .TRUE.
degauss = 1.00000e-02
nspin = 2
starting_magnetization(2) = 0.000
starting_magnetization(1) = -0.000
!systemend
/

&ELECTRONS
startingwfc = "atomic+random"
mixing_beta = 2.0000e-01
mixing_mode = "plain"
!mixing_ndim = 4
electron_maxstep = 1000
conv_thr = 1.00000e-8
startingpot = "atomic"
!diagonalization = "cg"
/
!electronsend


&IONS
ion_dynamics = "bfgs"
!ion_temperature = "rescaling"
!tempw = 0
/
!ionsend
!cellend

K_POINTS {automatic}
6 6 6 0 0 0
ATOMIC_SPECIES
Mn  54.938  mn_pbe_v1.5.uspp.F.UPF
Cr  51.9961  cr_pbe_v1.5.uspp.F.UPF
ATOMIC_POSITIONS (angstrom)
Mn -0.001314965317 2.308601386154 0.007446699555
Cr 2.306785034683 -0.011039113846 2.315546699555
Mn -0.001314965317 -0.011039113846 2.315546699555
Cr 2.306785034683 2.308601386154 0.007446699555
Mn 2.308457741602 0.009654477259 -0.001226717648
Cr -0.001314965317 2.297060886154 2.315546699555
Mn 2.308457741602 2.306213977259 2.306873282352
Cr -0.001314965317 0.000501386154 0.007446699555
CELL_PARAMETERS (angstrom)
4.6162 0 0
0.000000000000 4.6162 0
0.000000000000 -0.023081000000 4.6162
!End