&CONTROL
calculation = "relax"
nstep = 100
tprnfor = .TRUE. 
tstress = .TRUE. 
etot_conv_thr = 1.0d-5
forc_conv_thr = 1.0d-4
disk_io = 'none'
pseudo_dir = '/opt/QEpot/SSSP_efficiency_pseudos/'
/
!controlend

&SYSTEM
occupations = "smearing"
nat = 8
smearing = "gaussian"
ntyp = 2
ibrav = 0
ecutwfc = 90
ecutrho = 1080
nosym = .TRUE.
degauss = 1.00000e-02
nspin = 2
starting_magnetization(2) = 0.000
starting_magnetization(1) = -0.000
!systemend
/

&ELECTRONS
startingwfc = "atomic+random"
mixing_beta = 2.0000e-01
mixing_mode = "plain"
!mixing_ndim = 4
electron_maxstep = 1000
conv_thr = 1.00000e-8
startingpot = "atomic"
!diagonalization = "cg"
/
!electronsend


&IONS
ion_dynamics = "bfgs"
!ion_temperature = "rescaling"
!tempw = 0
/
!ionsend
!cellend

K_POINTS {automatic}
6 6 6 0 0 0
ATOMIC_SPECIES
Mn  54.938  mn_pbe_v1.5.uspp.F.UPF
Cr  51.9961  cr_pbe_v1.5.uspp.F.UPF
ATOMIC_POSITIONS (angstrom)
Mn 0.007189288732 2.31585299198 0.001462245447
Cr 2.315289288732 -0.00378750802 2.309562245447
Mn 0.007189288732 -0.00378750802 2.309562245447
Cr 2.315289288732 2.31585299198 0.001462245447
Mn 2.309438398725 0.001089703033 -0.004974511739
Cr 0.007189288732 2.31585299198 2.309562245447
Mn 2.309438398725 2.320730203033 2.303125488261
Cr 0.007189288732 -0.00378750802 0.001462245447
CELL_PARAMETERS (angstrom)
4.6162 0 0
0 4.639281 0
0 0 4.6162
!End