&CONTROL
calculation = "relax"
nstep = 100
tprnfor = .TRUE. 
tstress = .TRUE. 
etot_conv_thr = 1.0d-5
forc_conv_thr = 1.0d-4
disk_io = 'none'
pseudo_dir = '/opt/QEpot/SSSP_efficiency_pseudos/'
/
!controlend

&SYSTEM
occupations = "smearing"
nat = 8
smearing = "gaussian"
ntyp = 2
ibrav = 0
ecutwfc = 90
ecutrho = 1080
nosym = .TRUE.
degauss = 1.00000e-02
nspin = 2
starting_magnetization(2) = 0.000
starting_magnetization(1) = -0.000
!systemend
/

&ELECTRONS
startingwfc = "atomic+random"
mixing_beta = 2.0000e-01
mixing_mode = "plain"
!mixing_ndim = 4
electron_maxstep = 1000
conv_thr = 1.00000e-8
startingpot = "atomic"
!diagonalization = "cg"
/
!electronsend


&IONS
ion_dynamics = "bfgs"
!ion_temperature = "rescaling"
!tempw = 0
/
!ionsend
!cellend

K_POINTS {automatic}
6 6 6 0 0 0
ATOMIC_SPECIES
Mn  54.938  mn_pbe_v1.5.uspp.F.UPF
Cr  51.9961  cr_pbe_v1.5.uspp.F.UPF
ATOMIC_POSITIONS (angstrom)
Mn 0.002632465867 2.316750597343 0.007846041342
Cr 2.322272965867 0.008650597343 2.315946041342
Mn 0.014172965867 0.008650597343 2.315946041342
Cr 2.310732465867 2.316750597343 0.007846041342
Mn 2.313107994836 0.009300009366 0.001936630919
Cr 0.014172965867 2.316750597343 2.315946041342
Mn 2.324648494836 2.317400009366 2.310036630919
Cr 0.002632465867 0.008650597343 0.007846041342
CELL_PARAMETERS (angstrom)
4.6162 0 0
0.000000000000 4.6162 0
0.023081000000 0.000000000000 4.6162
!End