&CONTROL
calculation = "relax"
nstep = 100
tprnfor = .TRUE. 
tstress = .TRUE. 
etot_conv_thr = 1.0d-5
forc_conv_thr = 1.0d-4
disk_io = 'none'
pseudo_dir = '/opt/QEpot/SSSP_efficiency_pseudos/'
/
!controlend

&SYSTEM
occupations = "smearing"
nat = 8
smearing = "gaussian"
ntyp = 2
ibrav = 0
ecutwfc = 90
ecutrho = 1080
nosym = .TRUE.
degauss = 1.00000e-02
nspin = 2
starting_magnetization(2) = 0.000
starting_magnetization(1) = -0.000
!systemend
/

&ELECTRONS
startingwfc = "atomic+random"
mixing_beta = 2.0000e-01
mixing_mode = "plain"
!mixing_ndim = 4
electron_maxstep = 1000
conv_thr = 1.00000e-8
startingpot = "atomic"
!diagonalization = "cg"
/
!electronsend


&IONS
ion_dynamics = "bfgs"
!ion_temperature = "rescaling"
!tempw = 0
/
!ionsend
!cellend

K_POINTS {automatic}
6 6 6 0 0 0
ATOMIC_SPECIES
Mn  54.938  mn_pbe_v1.5.uspp.F.UPF
Cr  51.9961  cr_pbe_v1.5.uspp.F.UPF
ATOMIC_POSITIONS (angstrom)
Mn 0.007455501949 2.312024743244 -0.007038861424
Cr 2.304015001949 0.003924743244 2.301061138576
Mn -0.004084998051 0.003924743244 2.301061138576
Cr 2.315555501949 2.312024743244 -0.007038861424
Mn 2.299787078364 0.00668261098 0.004233345768
Cr 0.007455501949 2.312024743244 2.301061138576
Mn 2.311327578364 2.31478261098 2.312333345768
Cr -0.004084998051 0.003924743244 -0.007038861424
CELL_PARAMETERS (angstrom)
4.6162 0 0
0.023081000000 4.6162 0
0.000000000000 0.000000000000 4.6162
!End