&CONTROL
calculation = "vc-relax"
nstep = 1000
etot_conv_thr = 1.0d-5
forc_conv_thr = 1.0d-4
disk_io = 'none'
pseudo_dir = '/opt/QEpot/SSSP_precision_pseudos/'
/
!controlend

&SYSTEM
occupations = "smearing"
nat = 4
smearing = "gaussian"
ntyp = 1
ibrav = 0
ecutwfc = 90
ecutrho = 1080
nosym = .TRUE.
degauss = 1.00000e-02
nspin = 2
starting_magnetization(1) =  0.2
!systemend
/

&ELECTRONS
startingwfc = "atomic+random"
mixing_beta = 2.0000e-01
mixing_mode = "plain"
!mixing_ndim = 4
electron_maxstep = 1000
conv_thr = 1.00000e-8
startingpot = "atomic"
!diagonalization = "cg"
/
!electronsend


&IONS
ion_dynamics = "bfgs"
!ion_temperature = "rescaling"
!tempw = 0
/
!ionsend

&CELL
press_conv_thr = 0.1
cell_dynamics = "bfgs"
!press = 0
/
!cellend

K_POINTS {automatic}
5 5 5 0 0 0
ATOMIC_SPECIES
Fe  55.845  Fe.pbe-spn-kjpaw_psl.0.2.1.UPF
ATOMIC_POSITIONS {angstrom}
Fe 2.128697485082 1.987900479764 1.245495037732
Fe 2.125754332918 3.974635880493 4.239126028374
Fe 0.905828413005 1.986945514652 3.43914075631
Fe 0.906773314332 3.975582979184 2.045278479455
CELL_PARAMETERS {angstrom}
2.44199437 0 0
-0.009327849228 3.976593459901 0
-0.003978555993 -0.001886210244 4.387616120749
!End