&CONTROL
calculation = "relax"
nstep = 100
tprnfor = .TRUE. 
tstress = .TRUE. 
etot_conv_thr = 1.0d-5
forc_conv_thr = 1.0d-4
disk_io = 'none'
pseudo_dir = '/opt/QEpot/SSSP_efficiency_pseudos/'
/
!controlend

&SYSTEM
occupations = "smearing"
nat = 8
smearing = "gaussian"
ntyp = 2
ibrav = 0
ecutwfc = 90
ecutrho = 1080
nosym = .TRUE.
degauss = 1.00000e-02
nspin = 2
starting_magnetization(2) = 0.000
starting_magnetization(1) = 0.000
!systemend
/

&ELECTRONS
startingwfc = "atomic+random"
mixing_beta = 2.0000e-01
mixing_mode = "plain"
!mixing_ndim = 4
electron_maxstep = 1000
conv_thr = 1.00000e-8
startingpot = "atomic"
!diagonalization = "cg"
/
!electronsend


&IONS
ion_dynamics = "bfgs"
!ion_temperature = "rescaling"
!tempw = 0
/
!ionsend
!cellend

K_POINTS {automatic}
6 6 6 0 0 0
ATOMIC_SPECIES
Ni  58.693  ni_pbe_v1.4.uspp.F.UPF
Co  58.933  Co_pbe_v1.2.uspp.F.UPF
ATOMIC_POSITIONS (angstrom)
Ni -0.0046774466 2.302240466864 -0.006661690019
Co 2.2874543034 -0.001409533136 2.296988309981
Ni -0.0161956966 -0.001409533136 2.296988309981
Co 2.2989725534 2.302240466864 -0.006661690019
Ni 2.30967428808 -0.002459178729 -0.006834466787
Co -0.0161956966 2.302240466864 2.296988309981
Ni 2.29815603808 2.301190821271 2.296815533213
Co -0.0046774466 -0.001409533136 -0.006661690019
CELL_PARAMETERS (angstrom)
4.6073 0 0
0.000000000000 4.6073 0
-0.023036500000 0.000000000000 4.6073
!End