&CONTROL
calculation = "relax"
nstep = 100
tprnfor = .TRUE. 
tstress = .TRUE. 
etot_conv_thr = 1.0d-5
forc_conv_thr = 1.0d-4
disk_io = 'none'
pseudo_dir = '/opt/QEpot/SSSP_efficiency_pseudos/'
/
!controlend

&SYSTEM
occupations = "smearing"
nat = 8
smearing = "gaussian"
ntyp = 2
ibrav = 0
ecutwfc = 90
ecutrho = 1080
nosym = .TRUE.
degauss = 1.00000e-02
nspin = 2
starting_magnetization(2) = 0.000
starting_magnetization(1) = 0.000
!systemend
/

&ELECTRONS
startingwfc = "atomic+random"
mixing_beta = 2.0000e-01
mixing_mode = "plain"
!mixing_ndim = 4
electron_maxstep = 1000
conv_thr = 1.00000e-8
startingpot = "atomic"
!diagonalization = "cg"
/
!electronsend


&IONS
ion_dynamics = "bfgs"
!ion_temperature = "rescaling"
!tempw = 0
/
!ionsend
!cellend

K_POINTS {automatic}
6 6 6 0 0 0
ATOMIC_SPECIES
Ni  58.693  ni_pbe_v1.4.uspp.F.UPF
Co  58.933  Co_pbe_v1.2.uspp.F.UPF
ATOMIC_POSITIONS (angstrom)
Ni -0.006402094847 2.296428281521 0.004216223995
Co 2.297247905153 -0.018739968479 2.307866223995
Ni -0.006402094847 -0.018739968479 2.307866223995
Co 2.297247905153 2.296428281521 0.004216223995
Ni 2.31157516512 -0.005334396301 -0.002098210288
Co -0.006402094847 2.284910031521 2.307866223995
Ni 2.31157516512 2.286797353699 2.301551789712
Co -0.006402094847 -0.007221718479 0.004216223995
CELL_PARAMETERS (angstrom)
4.6073 0 0
0.000000000000 4.6073 0
0.000000000000 -0.023036500000 4.6073
!End