&CONTROL
calculation = "relax"
nstep = 100
tprnfor = .TRUE. 
tstress = .TRUE. 
etot_conv_thr = 1.0d-5
forc_conv_thr = 1.0d-4
disk_io = 'none'
pseudo_dir = '/opt/QEpot/SSSP_efficiency_pseudos/'
/
!controlend

&SYSTEM
occupations = "smearing"
nat = 8
smearing = "gaussian"
ntyp = 2
ibrav = 0
ecutwfc = 90
ecutrho = 1080
nosym = .TRUE.
degauss = 1.00000e-02
nspin = 2
starting_magnetization(2) = 0.000
starting_magnetization(1) = 0.000
!systemend
/

&ELECTRONS
startingwfc = "atomic+random"
mixing_beta = 2.0000e-01
mixing_mode = "plain"
!mixing_ndim = 4
electron_maxstep = 1000
conv_thr = 1.00000e-8
startingpot = "atomic"
!diagonalization = "cg"
/
!electronsend


&IONS
ion_dynamics = "bfgs"
!ion_temperature = "rescaling"
!tempw = 0
/
!ionsend
!cellend

K_POINTS {automatic}
6 6 6 0 0 0
ATOMIC_SPECIES
Ni  58.693  ni_pbe_v1.4.uspp.F.UPF
Co  58.933  Co_pbe_v1.2.uspp.F.UPF
ATOMIC_POSITIONS (angstrom)
Ni 0.0107837574        2.3386732422       -0.0398130800
Co 2.3190406721       -0.0514133895        2.3513562080
Ni 0.0107743885        0.0350123664        2.2638306953
Co 2.3190533234        2.2521279959        0.0476861507
Ni 2.3641041143        0.0338845864        0.0503010851
Co 0.0428326322        2.3426873837        2.2549187470
Ni 2.3639726562        2.3376309931        2.3538889007
Co 0.0427943241        0.0390407093       -0.0487458894
CELL_PARAMETERS (angstrom)
4.6303365 0 0
0 4.6073 0
0 0 4.6073
!End