&CONTROL
calculation = "relax"
nstep = 100
tprnfor = .TRUE. 
tstress = .TRUE. 
etot_conv_thr = 1.0d-5
forc_conv_thr = 1.0d-4
disk_io = 'none'
pseudo_dir = '/opt/QEpot/SSSP_efficiency_pseudos/'
/
!controlend

&SYSTEM
occupations = "smearing"
nat = 8
smearing = "gaussian"
ntyp = 2
ibrav = 0
ecutwfc = 90
ecutrho = 1080
nosym = .TRUE.
degauss = 1.00000e-02
nspin = 2
starting_magnetization(2) = 0.000
starting_magnetization(1) = 0.000
!systemend
/

&ELECTRONS
startingwfc = "atomic+random"
mixing_beta = 2.0000e-01
mixing_mode = "plain"
!mixing_ndim = 4
electron_maxstep = 1000
conv_thr = 1.00000e-8
startingpot = "atomic"
!diagonalization = "cg"
/
!electronsend


&IONS
ion_dynamics = "bfgs"
!ion_temperature = "rescaling"
!tempw = 0
/
!ionsend
!cellend

K_POINTS {automatic}
6 6 6 0 0 0
ATOMIC_SPECIES
Mn  54.938  mn_pbe_v1.5.uspp.F.UPF
Co  58.933  Co_pbe_v1.2.uspp.F.UPF
ATOMIC_POSITIONS (angstrom)
Mn 0.0144535640        2.2767340526       -0.0307836468
Co 2.2891174769       -0.0071904806        2.2628952244
Mn 0.0030213278       -0.0097656889        2.2557155153
Co 2.3005474714        2.2793102278       -0.0236020243
Mn 2.2727775933        0.0135063639        0.0248477784
Co -0.0000386476        2.2781101926        2.2597806902
Mn 2.2613481083        2.3000070470        2.3113526266
Co 0.0114008173       -0.0083897894       -0.0267168477
CELL_PARAMETERS (angstrom)
4.573 0 0
0.000000000000 4.573 0
-0.022865000000 0.000000000000 4.573
!End