&CONTROL
calculation = "relax"
nstep = 100
tprnfor = .TRUE. 
tstress = .TRUE. 
etot_conv_thr = 1.0d-5
forc_conv_thr = 1.0d-4
disk_io = 'none'
pseudo_dir = '/opt/QEpot/SSSP_efficiency_pseudos/'
/
!controlend

&SYSTEM
occupations = "smearing"
nat = 8
smearing = "gaussian"
ntyp = 2
ibrav = 0
ecutwfc = 90
ecutrho = 1080
nosym = .TRUE.
degauss = 1.00000e-02
nspin = 2
starting_magnetization(2) = 0.000
starting_magnetization(1) = 0.000
!systemend
/

&ELECTRONS
startingwfc = "atomic+random"
mixing_beta = 2.0000e-01
mixing_mode = "plain"
!mixing_ndim = 4
electron_maxstep = 1000
conv_thr = 1.00000e-8
startingpot = "atomic"
!diagonalization = "cg"
/
!electronsend


&IONS
ion_dynamics = "bfgs"
!ion_temperature = "rescaling"
!tempw = 0
/
!ionsend
!cellend

K_POINTS {automatic}
6 6 6 0 0 0
ATOMIC_SPECIES
Mn  54.938  mn_pbe_v1.5.uspp.F.UPF
Co  58.933  Co_pbe_v1.2.uspp.F.UPF
ATOMIC_POSITIONS (angstrom)
Mn -0.011914530419 2.281412574283 0.001018086412
Co 2.286017969581 -0.005087425717 2.287518086412
Mn -0.000482030419 -0.005087425717 2.287518086412
Co 2.274585469581 2.281412574283 0.001018086412
Mn 2.285429321942 -0.0041603087 -0.006768687702
Co -0.011914530419 2.281412574283 2.287518086412
Mn 2.273996821942 2.2823396913 2.279731312298
Co -0.000482030419 -0.005087425717 0.001018086412
CELL_PARAMETERS (angstrom)
4.573 0 0
-0.022865000000 4.573 0
0.000000000000 0.000000000000 4.573
!End