&CONTROL
calculation = "relax"
nstep = 100
tprnfor = .TRUE. 
tstress = .TRUE. 
etot_conv_thr = 1.0d-5
forc_conv_thr = 1.0d-4
disk_io = 'none'
pseudo_dir = '/opt/QEpot/SSSP_efficiency_pseudos/'
/
!controlend

&SYSTEM
occupations = "smearing"
nat = 8
smearing = "gaussian"
ntyp = 2
ibrav = 0
ecutwfc = 90
ecutrho = 1080
nosym = .TRUE.
degauss = 1.00000e-02
nspin = 2
starting_magnetization(2) = 0.000
starting_magnetization(1) = 0.000
!systemend
/

&ELECTRONS
startingwfc = "atomic+random"
mixing_beta = 2.0000e-01
mixing_mode = "plain"
!mixing_ndim = 4
electron_maxstep = 1000
conv_thr = 1.00000e-8
startingpot = "atomic"
!diagonalization = "cg"
/
!electronsend


&IONS
ion_dynamics = "bfgs"
!ion_temperature = "rescaling"
!tempw = 0
/
!ionsend
!cellend

K_POINTS {automatic}
6 6 6 0 0 0
ATOMIC_SPECIES
Mn  54.938  mn_pbe_v1.5.uspp.F.UPF
Co  58.933  Co_pbe_v1.2.uspp.F.UPF
ATOMIC_POSITIONS (angstrom)
Mn 0.001000380503 2.277474413314 0.000718086295
Co 2.287500380503 -0.020458086686 2.287218086295
Mn 0.001000380503 -0.020458086686 2.287218086295
Co 2.287500380503 2.277474413314 0.000718086295
Mn 2.278279408062 0.003750362108 -0.009803195999
Co 0.001000380503 2.266041913314 2.287218086295
Mn 2.278279408062 2.278817862108 2.276696804001
Co 0.001000380503 -0.009025586686 0.000718086295
CELL_PARAMETERS (angstrom)
4.573 0 0
0.000000000000 4.573 0
0.000000000000 -0.022865000000 4.573
!End