&CONTROL
calculation = "relax"
nstep = 100
tprnfor = .TRUE. 
tstress = .TRUE. 
etot_conv_thr = 1.0d-5
forc_conv_thr = 1.0d-4
disk_io = 'none'
pseudo_dir = '/opt/QEpot/SSSP_efficiency_pseudos/'
/
!controlend

&SYSTEM
occupations = "smearing"
nat = 8
smearing = "gaussian"
ntyp = 2
ibrav = 0
ecutwfc = 90
ecutrho = 1080
nosym = .TRUE.
degauss = 1.00000e-02
nspin = 2
starting_magnetization(2) = 0.000
starting_magnetization(1) = 0.000
!systemend
/

&ELECTRONS
startingwfc = "atomic+random"
mixing_beta = 2.0000e-01
mixing_mode = "plain"
!mixing_ndim = 4
electron_maxstep = 1000
conv_thr = 1.00000e-8
startingpot = "atomic"
!diagonalization = "cg"
/
!electronsend


&IONS
ion_dynamics = "bfgs"
!ion_temperature = "rescaling"
!tempw = 0
/
!ionsend
!cellend

K_POINTS {automatic}
6 6 6 0 0 0
ATOMIC_SPECIES
Mn  54.938  mn_pbe_v1.5.uspp.F.UPF
Co  58.933  Co_pbe_v1.2.uspp.F.UPF
ATOMIC_POSITIONS (angstrom)
Mn 0.012073180062 2.28707721361 0.006918198663
Co 2.287140680062 0.00057721361 2.293418198663
Mn 0.000640680062 0.00057721361 2.293418198663
Co 2.298573180062 2.28707721361 0.006918198663
Mn 2.291139446165 0.00680853527 0.008237199419
Co 0.012073180062 2.28707721361 2.293418198663
Mn 2.302571946165 2.29330853527 2.294737199419
Co 0.000640680062 0.00057721361 0.006918198663
CELL_PARAMETERS (angstrom)
4.573 0 0
0.022865000000 4.573 0
0.000000000000 0.000000000000 4.573
!End