&CONTROL
calculation = "relax"
nstep = 100
tprnfor = .TRUE. 
tstress = .TRUE. 
etot_conv_thr = 1.0d-5
forc_conv_thr = 1.0d-4
disk_io = 'none'
pseudo_dir = '/opt/QEpot/SSSP_efficiency_pseudos/'
/
!controlend

&SYSTEM
occupations = "smearing"
nat = 8
smearing = "gaussian"
ntyp = 2
ibrav = 0
ecutwfc = 90
ecutrho = 1080
nosym = .TRUE.
degauss = 1.00000e-02
nspin = 2
starting_magnetization(2) = 0.000
starting_magnetization(1) = 0.000
!systemend
/

&ELECTRONS
startingwfc = "atomic+random"
mixing_beta = 2.0000e-01
mixing_mode = "plain"
!mixing_ndim = 4
electron_maxstep = 1000
conv_thr = 1.00000e-8
startingpot = "atomic"
!diagonalization = "cg"
/
!electronsend


&IONS
ion_dynamics = "bfgs"
!ion_temperature = "rescaling"
!tempw = 0
/
!ionsend
!cellend

K_POINTS {automatic}
6 6 6 0 0 0
ATOMIC_SPECIES
Mn  54.938  mn_pbe_v1.5.uspp.F.UPF
Co  58.933  Co_pbe_v1.2.uspp.F.UPF
ATOMIC_POSITIONS (angstrom)
Mn -0.005142369046 2.297023318605 -0.006897663264
Co 2.281357630954 -0.000909181395 2.279602336736
Mn -0.005142369046 -0.000909181395 2.279602336736
Co 2.281357630954 2.297023318605 -0.006897663264
Mn 2.291959200379 -0.008581504838 -0.002659505319
Co -0.005142369046 2.297023318605 2.279602336736
Mn 2.291959200379 2.289350995162 2.283840494681
Co -0.005142369046 -0.000909181395 -0.006897663264
CELL_PARAMETERS (angstrom)
4.573 0 0
0 4.595865 0
0 0 4.573
!End