&CONTROL
calculation = "relax"
nstep = 100
tprnfor = .TRUE. 
tstress = .TRUE. 
etot_conv_thr = 1.0d-5
forc_conv_thr = 1.0d-4
disk_io = 'none'
pseudo_dir = '/opt/QEpot/SSSP_efficiency_pseudos/'
/
!controlend

&SYSTEM
occupations = "smearing"
nat = 8
smearing = "gaussian"
ntyp = 2
ibrav = 0
ecutwfc = 90
ecutrho = 1080
nosym = .TRUE.
degauss = 1.00000e-02
nspin = 2
starting_magnetization(2) = 0.000
starting_magnetization(1) = 0.000
!systemend
/

&ELECTRONS
startingwfc = "atomic+random"
mixing_beta = 2.0000e-01
mixing_mode = "plain"
!mixing_ndim = 4
electron_maxstep = 1000
conv_thr = 1.00000e-8
startingpot = "atomic"
!diagonalization = "cg"
/
!electronsend


&IONS
ion_dynamics = "bfgs"
!ion_temperature = "rescaling"
!tempw = 0
/
!ionsend
!cellend

K_POINTS {automatic}
6 6 6 0 0 0
ATOMIC_SPECIES
Mn  54.938  mn_pbe_v1.5.uspp.F.UPF
Co  58.933  Co_pbe_v1.2.uspp.F.UPF
ATOMIC_POSITIONS (angstrom)
Mn 0.0050478662        2.2852905490        0.0061365894
Co 2.2907672728        0.0098845968        2.2888267495
Mn 0.0050474997        0.0102230832        2.2926374982
Co 2.2907721106        2.2849518411        0.0023239578
Mn 2.2777020343       -0.0022446007       -0.0091103527
Co -0.0001564049        2.2965686996        2.2904691796
Mn 2.2777000629        2.2956875970        2.2773857357
Co -0.0001669165       -0.0013640271        0.0039686072
CELL_PARAMETERS (angstrom)
4.573 0 0
0.000000000000 4.573 0
0.000000000000 0.022865000000 4.573
!End