&CONTROL
calculation = "relax"
nstep = 100
tprnfor = .TRUE. 
tstress = .TRUE. 
etot_conv_thr = 1.0d-5
forc_conv_thr = 1.0d-4
disk_io = 'none'
pseudo_dir = '/opt/QEpot/SSSP_efficiency_pseudos/'
/
!controlend

&SYSTEM
occupations = "smearing"
nat = 8
smearing = "gaussian"
ntyp = 2
ibrav = 0
ecutwfc = 90
ecutrho = 1080
nosym = .TRUE.
degauss = 1.00000e-02
nspin = 2
starting_magnetization(2) = 0.000
starting_magnetization(1) = 0.000
!systemend
/

&ELECTRONS
startingwfc = "atomic+random"
mixing_beta = 2.0000e-01
mixing_mode = "plain"
!mixing_ndim = 4
electron_maxstep = 1000
conv_thr = 1.00000e-8
startingpot = "atomic"
!diagonalization = "cg"
/
!electronsend


&IONS
ion_dynamics = "bfgs"
!ion_temperature = "rescaling"
!tempw = 0
/
!ionsend
!cellend

K_POINTS {automatic}
6 6 6 0 0 0
ATOMIC_SPECIES
Mn  54.938  mn_pbe_v1.5.uspp.F.UPF
Co  58.933  Co_pbe_v1.2.uspp.F.UPF
ATOMIC_POSITIONS (angstrom)
Mn -0.0052473448        2.2941360414       -0.0030877647
Co 2.2817243984        0.0058058335        2.2941447433
Mn -0.0052473534        0.0076361203        2.2948448451
Co 2.2817226380        2.2923055590       -0.0037877219
Mn 2.2971401011       -0.0089657710       -0.0095812977
Co -0.0026804709        2.2930851318        2.2944739734
Mn 2.2971404038        2.2775341175        2.2883511117
Co -0.0026805951        0.0065842509       -0.0034588549
CELL_PARAMETERS (angstrom)
4.573 0 0
0 4.573 0
0 0 4.595865
!End