&CONTROL
calculation = "relax"
nstep = 100
tprnfor = .TRUE. 
tstress = .TRUE. 
etot_conv_thr = 1.0d-5
forc_conv_thr = 1.0d-4
disk_io = 'none'
pseudo_dir = '/opt/QEpot/SSSP_efficiency_pseudos/'
/
!controlend

&SYSTEM
occupations = "smearing"
nat = 8
smearing = "gaussian"
ntyp = 2
ibrav = 0
ecutwfc = 90
ecutrho = 1080
nosym = .TRUE.
degauss = 1.00000e-02
nspin = 2
starting_magnetization(2) = 0.000
starting_magnetization(1) = 0.000
!systemend
/

&ELECTRONS
startingwfc = "atomic+random"
mixing_beta = 2.0000e-01
mixing_mode = "plain"
!mixing_ndim = 4
electron_maxstep = 1000
conv_thr = 1.00000e-8
startingpot = "atomic"
!diagonalization = "cg"
/
!electronsend


&IONS
ion_dynamics = "bfgs"
!ion_temperature = "rescaling"
!tempw = 0
/
!ionsend
!cellend

K_POINTS {automatic}
6 6 6 0 0 0
ATOMIC_SPECIES
Ni  58.693  ni_pbe_v1.4.uspp.F.UPF
Mn  54.938  mn_pbe_v1.5.uspp.F.UPF
ATOMIC_POSITIONS (angstrom)
Ni -0.018276618317 2.316856207929 0.000480856964
Mn 2.311212881683 -0.001043792071 2.318380856964
Ni -0.006687118317 -0.001043792071 2.318380856964
Mn 2.299623381683 2.316856207929 0.000480856964
Ni 2.323037275435 -0.005447965946 -0.005004605396
Mn -0.018276618317 2.316856207929 2.318380856964
Ni 2.311447775435 2.312452034054 2.312895394604
Mn -0.006687118317 -0.001043792071 0.000480856964
CELL_PARAMETERS (angstrom)
4.6358 0 0
-0.023179000000 4.6358 0
0.000000000000 0.000000000000 4.6358
!End