&CONTROL
calculation = "relax"
nstep = 100
tprnfor = .TRUE. 
tstress = .TRUE. 
etot_conv_thr = 1.0d-5
forc_conv_thr = 1.0d-4
disk_io = 'none'
pseudo_dir = '/opt/QEpot/SSSP_efficiency_pseudos/'
/
!controlend

&SYSTEM
occupations = "smearing"
nat = 8
smearing = "gaussian"
ntyp = 2
ibrav = 0
ecutwfc = 90
ecutrho = 1080
nosym = .TRUE.
degauss = 1.00000e-02
nspin = 2
starting_magnetization(2) = 0.000
starting_magnetization(1) = 0.000
!systemend
/

&ELECTRONS
startingwfc = "atomic+random"
mixing_beta = 2.0000e-01
mixing_mode = "plain"
!mixing_ndim = 4
electron_maxstep = 1000
conv_thr = 1.00000e-8
startingpot = "atomic"
!diagonalization = "cg"
/
!electronsend


&IONS
ion_dynamics = "bfgs"
!ion_temperature = "rescaling"
!tempw = 0
/
!ionsend
!cellend

K_POINTS {automatic}
6 6 6 0 0 0
ATOMIC_SPECIES
Ni  58.693  ni_pbe_v1.4.uspp.F.UPF
Mn  54.938  mn_pbe_v1.5.uspp.F.UPF
ATOMIC_POSITIONS (angstrom)
Ni 0.000905783119 2.324483203191 -0.003013982537
Mn 2.318805783119 -0.005006296809 2.314886017463
Ni 0.000905783119 -0.005006296809 2.314886017463
Mn 2.318805783119 2.324483203191 -0.003013982537
Ni 2.318751095374 0.00507141651 0.001316639004
Mn 0.000905783119 2.312893703191 2.314886017463
Ni 2.318751095374 2.31138191651 2.319216639004
Mn 0.000905783119 0.006583203191 -0.003013982537
CELL_PARAMETERS (angstrom)
4.6358 0 0
0.000000000000 4.6358 0
0.000000000000 -0.023179000000 4.6358
!End