&CONTROL
calculation = "relax"
nstep = 100
tprnfor = .TRUE. 
tstress = .TRUE. 
etot_conv_thr = 1.0d-5
forc_conv_thr = 1.0d-4
disk_io = 'none'
pseudo_dir = '/opt/QEpot/SSSP_efficiency_pseudos/'
/
!controlend

&SYSTEM
occupations = "smearing"
nat = 8
smearing = "gaussian"
ntyp = 2
ibrav = 0
ecutwfc = 90
ecutrho = 1080
nosym = .TRUE.
degauss = 1.00000e-02
nspin = 2
starting_magnetization(2) = 0.000
starting_magnetization(1) = 0.000
!systemend
/

&ELECTRONS
startingwfc = "atomic+random"
mixing_beta = 2.0000e-01
mixing_mode = "plain"
!mixing_ndim = 4
electron_maxstep = 1000
conv_thr = 1.00000e-8
startingpot = "atomic"
!diagonalization = "cg"
/
!electronsend


&IONS
ion_dynamics = "bfgs"
!ion_temperature = "rescaling"
!tempw = 0
/
!ionsend
!cellend

K_POINTS {automatic}
6 6 6 0 0 0
ATOMIC_SPECIES
Ni  58.693  ni_pbe_v1.4.uspp.F.UPF
Mn  54.938  mn_pbe_v1.5.uspp.F.UPF
ATOMIC_POSITIONS (angstrom)
Ni -0.000984822863 2.325131923149 -0.002091530546
Mn 2.305325677137 0.007231923149 2.315808469454
Ni -0.012574322863 0.007231923149 2.315808469454
Mn 2.316915177137 2.325131923149 -0.002091530546
Ni 2.324959440484 0.0064778913 -0.00505368247
Mn -0.012574322863 2.325131923149 2.315808469454
Ni 2.313369940484 2.3243778913 2.31284631753
Mn -0.000984822863 0.007231923149 -0.002091530546
CELL_PARAMETERS (angstrom)
4.6358 0 0
0.000000000000 4.6358 0
-0.023179000000 0.000000000000 4.6358
!End