&CONTROL
calculation = "relax"
nstep = 100
tprnfor = .TRUE. 
tstress = .TRUE. 
etot_conv_thr = 1.0d-5
forc_conv_thr = 1.0d-4
disk_io = 'none'
pseudo_dir = '/opt/QEpot/SSSP_efficiency_pseudos/'
/
!controlend

&SYSTEM
occupations = "smearing"
nat = 8
smearing = "gaussian"
ntyp = 2
ibrav = 0
ecutwfc = 90
ecutrho = 1080
nosym = .TRUE.
degauss = 1.00000e-02
nspin = 2
starting_magnetization(2) = 0.000
starting_magnetization(1) = 0.000
!systemend
/

&ELECTRONS
startingwfc = "atomic+random"
mixing_beta = 2.0000e-01
mixing_mode = "plain"
!mixing_ndim = 4
electron_maxstep = 1000
conv_thr = 1.00000e-8
startingpot = "atomic"
!diagonalization = "cg"
/
!electronsend


&IONS
ion_dynamics = "bfgs"
!ion_temperature = "rescaling"
!tempw = 0
/
!ionsend
!cellend

K_POINTS {automatic}
6 6 6 0 0 0
ATOMIC_SPECIES
Ni  58.693  ni_pbe_v1.4.uspp.F.UPF
Mn  54.938  mn_pbe_v1.5.uspp.F.UPF
ATOMIC_POSITIONS (angstrom)
Ni 0.004769433275 2.313750638455 0.004086108888
Mn 2.322669433275 0.007440138455 2.321986108888
Ni 0.004769433275 0.007440138455 2.321986108888
Mn 2.322669433275 2.313750638455 0.004086108888
Ni 2.310699219562 0.001348579552 -0.007394668158
Mn 0.004769433275 2.325340138455 2.321986108888
Ni 2.310699219562 2.330838079552 2.310505331842
Mn 0.004769433275 -0.004149361545 0.004086108888
CELL_PARAMETERS (angstrom)
4.6358 0 0
0.000000000000 4.6358 0
0.000000000000 0.023179000000 4.6358
!End