&CONTROL
calculation = "relax"
nstep = 100
tprnfor = .TRUE. 
tstress = .TRUE. 
etot_conv_thr = 1.0d-5
forc_conv_thr = 1.0d-4
disk_io = 'none'
pseudo_dir = '/opt/QEpot/SSSP_efficiency_pseudos/'
/
!controlend

&SYSTEM
occupations = "smearing"
nat = 8
smearing = "gaussian"
ntyp = 2
ibrav = 0
ecutwfc = 90
ecutrho = 1080
nosym = .TRUE.
degauss = 1.00000e-02
nspin = 2
starting_magnetization(2) = 0.000
starting_magnetization(1) = 0.000
!systemend
/

&ELECTRONS
startingwfc = "atomic+random"
mixing_beta = 2.0000e-01
mixing_mode = "plain"
!mixing_ndim = 4
electron_maxstep = 1000
conv_thr = 1.00000e-8
startingpot = "atomic"
!diagonalization = "cg"
/
!electronsend


&IONS
ion_dynamics = "bfgs"
!ion_temperature = "rescaling"
!tempw = 0
/
!ionsend
!cellend

K_POINTS {automatic}
6 6 6 0 0 0
ATOMIC_SPECIES
Ni  58.693  ni_pbe_v1.4.uspp.F.UPF
Mn  54.938  mn_pbe_v1.5.uspp.F.UPF
ATOMIC_POSITIONS (angstrom)
Ni 0.00523886956 2.310078513146 0.008487572503
Mn 2.31154936956 -0.007821486854 2.326387572503
Ni -0.00635063044 -0.007821486854 2.326387572503
Mn 2.32313886956 2.310078513146 0.008487572503
Ni 2.315604096616 -0.002804346017 0.000408165403
Mn 0.00523886956 2.310078513146 2.326387572503
Ni 2.327193596616 2.315095653983 2.318308165403
Mn -0.00635063044 -0.007821486854 0.008487572503
CELL_PARAMETERS (angstrom)
4.6358 0 0
0.023179000000 4.6358 0
0.000000000000 0.000000000000 4.6358
!End