&CONTROL
calculation = "vc-relax"
nstep          = 1000   
etot_conv_thr = 1.0d-5
forc_conv_thr = 1.0d-4
disk_io = 'none'
pseudo_dir = '/opt/QEpot/SSSP_precision_pseudos/'
/
!controlend

&SYSTEM
occupations = "smearing"
nat = 54
smearing = "gaussian"
ntyp = 6
ibrav = 0
ecutwfc = 45
ecutrho = 360
nosym = .TRUE.
degauss = 1.00000e-02
nspin = 2
starting_magnetization(6) =  2.00000e-01
starting_magnetization(5) =  2.00000e-01
starting_magnetization(4) =  2.00000e-01
starting_magnetization(3) =  2.00000e-01
starting_magnetization(2) =  2.00000e-01
starting_magnetization(1) =  2.00000e-01
!systemend
/

&ELECTRONS
startingwfc = "atomic+random"
mixing_beta = 2.0000e-01
mixing_mode = "plain"
!mixing_ndim = 4
electron_maxstep = 1000
conv_thr = 1.00000e-8
startingpot = "atomic"
!diagonalization = "cg"
/
!electronsend


&IONS
ion_dynamics = "bfgs"
!ion_temperature = "rescaling"
!tempw = 0
/
!ionsend

&CELL
press_conv_thr = 0.1
cell_dynamics = "bfgs"
cell_dofree = "xyz"
!press = 0
/
!cellend

K_POINTS {automatic}
2 2 2 0 0 0
ATOMIC_SPECIES
Al  26.981539  Al.pbe-n-kjpaw_psl.1.0.0.UPF
Mo  95.95  Mo_ONCV_PBE-1.0.oncvpsp.upf
Nb  92.90638  Nb.pbe-spn-kjpaw_psl.0.3.0.UPF
Ta  180.94788  Ta_pbe_v1.uspp.F.UPF
Ti  47.867  ti_pbe_v1.4.uspp.F.UPF
Zr  91.224  Zr_pbe_v1.uspp.F.UPF
ATOMIC_POSITIONS {angstrom}
Ta 8.30814027048937 8.30814027048937 8.30814027048937
Nb 4.98488416229362 8.30814027048937 8.30814027048937
Ti 8.30814027048937 4.98488416229362 8.30814027048937
Zr 4.98488416229362 4.98488416229362 8.30814027048937
Al 6.64651221639149 6.64651221639149 6.64651221639149
Mo 8.30814027048937 8.30814027048937 4.98488416229362
Zr 4.98488416229362 8.30814027048937 4.98488416229362
Zr 8.30814027048937 4.98488416229362 4.98488416229362
Ta 4.98488416229362 4.98488416229362 4.98488416229362
Nb 6.64651221639149 6.64651221639149 3.32325610819575
Al 8.30814027048937 8.30814027048937 1.66162805409787
Mo 6.64651221639149 6.64651221639149 0
Zr 4.98488416229362 8.30814027048937 1.66162805409787
Al 8.30814027048937 4.98488416229362 1.66162805409787
Al 4.98488416229362 4.98488416229362 1.66162805409787
Mo 8.30814027048937 1.66162805409787 8.30814027048937
Al 4.98488416229362 1.66162805409787 8.30814027048937
Nb 6.64651221639149 3.32325610819575 6.64651221639149
Zr 6.64651221639149 0 6.64651221639149
Al 8.30814027048937 1.66162805409787 4.98488416229362
Ti 4.98488416229362 1.66162805409787 4.98488416229362
Mo 6.64651221639149 3.32325610819575 3.32325610819575
Ta 6.64651221639149 0 3.32325610819575
Ta 6.64651221639149 3.32325610819575 0
Zr 8.30814027048937 1.66162805409787 1.66162805409787
Al 6.64651221639149 0 0
Nb 4.98488416229362 1.66162805409787 1.66162805409787
Al 1.66162805409787 8.30814027048937 8.30814027048937
Nb 1.66162805409787 4.98488416229362 8.30814027048937
Mo 3.32325610819575 6.64651221639149 6.64651221639149
Al 0 6.64651221639149 6.64651221639149
Ti 1.66162805409787 8.30814027048937 4.98488416229362
Zr 1.66162805409787 4.98488416229362 4.98488416229362
Al 3.32325610819575 6.64651221639149 3.32325610819575
Ta 0 6.64651221639149 3.32325610819575
Ta 3.32325610819575 6.64651221639149 0
Nb 1.66162805409787 8.30814027048937 1.66162805409787
Zr 0 6.64651221639149 0
Mo 1.66162805409787 4.98488416229362 1.66162805409787
Zr 1.66162805409787 1.66162805409787 8.30814027048937
Al 3.32325610819575 3.32325610819575 6.64651221639149
Ta 0 3.32325610819575 6.64651221639149
Ta 3.32325610819575 0 6.64651221639149
Nb 0 0 6.64651221639149
Al 1.66162805409787 1.66162805409787 4.98488416229362
Zr 3.32325610819575 3.32325610819575 3.32325610819575
Nb 0 3.32325610819575 3.32325610819575
Al 3.32325610819575 0 3.32325610819575
Zr 0 0 3.32325610819575
Ti 3.32325610819575 3.32325610819575 0
Al 0 3.32325610819575 0
Mo 3.32325610819575 0 0
Ta 1.66162805409787 1.66162805409787 1.66162805409787
Ti 0 0 0
CELL_PARAMETERS {angstrom}
9.96976832458724 0 0
0 9.96976832458724 0
0 0 9.96976832458724
!End