&CONTROL
calculation = "relax"
nstep = 100
tprnfor = .TRUE. 
tstress = .TRUE. 
etot_conv_thr = 1.0d-5
forc_conv_thr = 1.0d-4
disk_io = 'none'
pseudo_dir = '/opt/QEpot/SSSP_efficiency_pseudos/'
/
!controlend

&SYSTEM
occupations = "smearing"
nat = 8
smearing = "gaussian"
ntyp = 2
ibrav = 0
ecutwfc = 90
ecutrho = 1080
nosym = .TRUE.
degauss = 1.00000e-02
nspin = 2
starting_magnetization(2) = 0.000
starting_magnetization(1) = 0.000
!systemend
/

&ELECTRONS
startingwfc = "atomic+random"
mixing_beta = 2.0000e-01
mixing_mode = "plain"
!mixing_ndim = 4
electron_maxstep = 1000
conv_thr = 1.00000e-8
startingpot = "atomic"
!diagonalization = "cg"
/
!electronsend


&IONS
ion_dynamics = "bfgs"
!ion_temperature = "rescaling"
!tempw = 0
/
!ionsend
!cellend

K_POINTS {automatic}
6 6 6 0 0 0
ATOMIC_SPECIES
Ni  58.693  ni_pbe_v1.4.uspp.F.UPF
Cr  51.9961  cr_pbe_v1.5.uspp.F.UPF
ATOMIC_POSITIONS (angstrom)
Ni -0.006083517873 2.324131929672 4.679416603092
Cr 2.334766482127 -0.005013820328 2.338566603092
Ni -0.006083517873 4.653277679672 2.338566603092
Cr 2.334766482127 2.324131929672 -0.002283396908
Ni 2.334319419423 -0.008148518422 -0.000471140471
Cr -0.006083517873 2.324131929672 2.338566603092
Ni 2.334319419423 2.320997231578 2.340378859529
Cr -0.006083517873 -0.005013820328 -0.002283396908
CELL_PARAMETERS (angstrom)
4.6817 0 0
0 4.6582915 0
0 0 4.6817
!End