&CONTROL
calculation = "relax"
nstep = 100
tprnfor = .TRUE. 
tstress = .TRUE. 
etot_conv_thr = 1.0d-5
forc_conv_thr = 1.0d-4
disk_io = 'none'
pseudo_dir = '/opt/QEpot/SSSP_efficiency_pseudos/'
/
!controlend

&SYSTEM
occupations = "smearing"
nat = 8
smearing = "gaussian"
ntyp = 2
ibrav = 0
ecutwfc = 90
ecutrho = 1080
nosym = .TRUE.
degauss = 1.00000e-02
nspin = 2
starting_magnetization(2) = 0.000
starting_magnetization(1) = 0.000
!systemend
/

&ELECTRONS
startingwfc = "atomic+random"
mixing_beta = 2.0000e-01
mixing_mode = "plain"
!mixing_ndim = 4
electron_maxstep = 1000
conv_thr = 1.00000e-8
startingpot = "atomic"
!diagonalization = "cg"
/
!electronsend


&IONS
ion_dynamics = "bfgs"
!ion_temperature = "rescaling"
!tempw = 0
/
!ionsend
!cellend

K_POINTS {automatic}
6 6 6 0 0 0
ATOMIC_SPECIES
Ni  58.693  ni_pbe_v1.4.uspp.F.UPF
Cr  51.9961  cr_pbe_v1.5.uspp.F.UPF
ATOMIC_POSITIONS (angstrom)
Ni -0.004267785483 2.347347622894 4.685087271417
Cr 2.348286464517 0.006497622894 2.344237271417
Ni -0.015972035483 4.688197622894 2.344237271417
Cr 2.336582214517 2.347347622894 0.003387271417
Ni 2.339141665418 0.001710743781 0.001708604077
Cr -0.004267785483 2.347347622894 2.344237271417
Ni 2.327437415418 2.342560743781 2.342558604077
Cr 0.007436464517 0.006497622894 0.003387271417
CELL_PARAMETERS (angstrom)
4.6817 0 0
-0.023408500000 4.6817 0
0.000000000000 0.000000000000 4.6817
!End