&CONTROL
calculation = "relax"
nstep = 100
tprnfor = .TRUE. 
tstress = .TRUE. 
etot_conv_thr = 1.0d-5
forc_conv_thr = 1.0d-4
disk_io = 'none'
pseudo_dir = '/opt/QEpot/SSSP_efficiency_pseudos/'
/
!controlend

&SYSTEM
occupations = "smearing"
nat = 8
smearing = "gaussian"
ntyp = 2
ibrav = 0
ecutwfc = 90
ecutrho = 1080
nosym = .TRUE.
degauss = 1.00000e-02
nspin = 2
starting_magnetization(2) = 0.000
starting_magnetization(1) = 0.000
!systemend
/

&ELECTRONS
startingwfc = "atomic+random"
mixing_beta = 2.0000e-01
mixing_mode = "plain"
!mixing_ndim = 4
electron_maxstep = 1000
conv_thr = 1.00000e-8
startingpot = "atomic"
!diagonalization = "cg"
/
!electronsend


&IONS
ion_dynamics = "bfgs"
!ion_temperature = "rescaling"
!tempw = 0
/
!ionsend
!cellend

K_POINTS {automatic}
6 6 6 0 0 0
ATOMIC_SPECIES
Ni  58.693  ni_pbe_v1.4.uspp.F.UPF
Cr  51.9961  cr_pbe_v1.5.uspp.F.UPF
ATOMIC_POSITIONS (angstrom)
Ni 0.001100667251 2.344438584487 4.680620712291
Cr 2.353654917251 0.003588584487 2.339770712291
Ni 0.001100667251 4.685288584487 2.339770712291
Cr 2.353654917251 2.344438584487 -0.001079287709
Ni 2.355660184255 -0.008455005865 0.006313670845
Cr 0.001100667251 2.344438584487 2.339770712291
Ni 2.355660184255 2.332394994135 2.347163670845
Cr 0.001100667251 0.003588584487 -0.001079287709
CELL_PARAMETERS (angstrom)
4.7051085 0 0
0 4.6817 0
0 0 4.6817
!End