&CONTROL
calculation = "relax"
nstep = 100
tprnfor = .TRUE. 
tstress = .TRUE. 
etot_conv_thr = 1.0d-5
forc_conv_thr = 1.0d-4
disk_io = 'none'
pseudo_dir = '/opt/QEpot/SSSP_efficiency_pseudos/'
/
!controlend

&SYSTEM
occupations = "smearing"
nat = 8
smearing = "gaussian"
ntyp = 2
ibrav = 0
ecutwfc = 90
ecutrho = 1080
nosym = .TRUE.
degauss = 1.00000e-02
nspin = 2
starting_magnetization(2) = 0.000
starting_magnetization(1) = 0.000
!systemend
/

&ELECTRONS
startingwfc = "atomic+random"
mixing_beta = 2.0000e-01
mixing_mode = "plain"
!mixing_ndim = 4
electron_maxstep = 1000
conv_thr = 1.00000e-8
startingpot = "atomic"
!diagonalization = "cg"
/
!electronsend


&IONS
ion_dynamics = "bfgs"
!ion_temperature = "rescaling"
!tempw = 0
/
!ionsend
!cellend

K_POINTS {automatic}
6 6 6 0 0 0
ATOMIC_SPECIES
Ni  58.693  ni_pbe_v1.4.uspp.F.UPF
Cr  51.9961  cr_pbe_v1.5.uspp.F.UPF
ATOMIC_POSITIONS (angstrom)
Ni -0.007768587962 2.37521581702 4.673219576714
Cr 2.333081412038 0.02266156702 2.332369576714
Ni -0.007768587962 4.70436156702 2.332369576714
Cr 2.333081412038 2.35180731702 -0.008480423286
Ni 2.333499355836 -0.004868354939 0.002982127367
Cr -0.007768587962 2.36351156702 2.332369576714
Ni 2.333499355836 2.347685895061 2.343832127367
Cr -0.007768587962 0.01095731702 -0.008480423286
CELL_PARAMETERS (angstrom)
4.6817 0 0
0.000000000000 4.6817 0
0.000000000000 0.023408500000 4.6817
!End