&CONTROL
calculation = "relax"
nstep = 100
tprnfor = .TRUE. 
tstress = .TRUE. 
etot_conv_thr = 1.0d-5
forc_conv_thr = 1.0d-4
disk_io = 'none'
pseudo_dir = '/opt/QEpot/SSSP_efficiency_pseudos/'
/
!controlend

&SYSTEM
occupations = "smearing"
nat = 8
smearing = "gaussian"
ntyp = 2
ibrav = 0
ecutwfc = 90
ecutrho = 1080
nosym = .TRUE.
degauss = 1.00000e-02
nspin = 2
starting_magnetization(2) = 0.000
starting_magnetization(1) = 0.000
!systemend
/

&ELECTRONS
startingwfc = "atomic+random"
mixing_beta = 2.0000e-01
mixing_mode = "plain"
!mixing_ndim = 4
electron_maxstep = 1000
conv_thr = 1.00000e-8
startingpot = "atomic"
!diagonalization = "cg"
/
!electronsend


&IONS
ion_dynamics = "bfgs"
!ion_temperature = "rescaling"
!tempw = 0
/
!ionsend
!cellend

K_POINTS {automatic}
6 6 6 0 0 0
ATOMIC_SPECIES
Ni  58.693  ni_pbe_v1.4.uspp.F.UPF
Cr  51.9961  cr_pbe_v1.5.uspp.F.UPF
ATOMIC_POSITIONS (angstrom)
Ni -0.000709308976 2.352305970985 4.679413240413
Cr 2.340140691024 -0.000248279015 2.338563240413
Ni -0.000709308976 4.704860220985 2.338563240413
Cr 2.340140691024 2.352305970985 -0.002286759587
Ni 2.348791347829 0.003368551752 0.002998294093
Cr -0.000709308976 2.352305970985 2.338563240413
Ni 2.348791347829 2.355922801752 2.343848294093
Cr -0.000709308976 -0.000248279015 -0.002286759587
CELL_PARAMETERS (angstrom)
4.6817 0 0
0 4.7051085 0
0 0 4.6817
!End