&CONTROL
calculation = "relax"
nstep = 100
tprnfor = .TRUE. 
tstress = .TRUE. 
etot_conv_thr = 1.0d-5
forc_conv_thr = 1.0d-4
disk_io = 'none'
pseudo_dir = '/opt/QEpot/SSSP_efficiency_pseudos/'
/
!controlend

&SYSTEM
occupations = "smearing"
nat = 8
smearing = "gaussian"
ntyp = 2
ibrav = 0
ecutwfc = 90
ecutrho = 1080
nosym = .TRUE.
degauss = 1.00000e-02
nspin = 2
starting_magnetization(2) = 0.000
starting_magnetization(1) = 0.000
!systemend
/

&ELECTRONS
startingwfc = "atomic+random"
mixing_beta = 2.0000e-01
mixing_mode = "plain"
!mixing_ndim = 4
electron_maxstep = 1000
conv_thr = 1.00000e-8
startingpot = "atomic"
!diagonalization = "cg"
/
!electronsend


&IONS
ion_dynamics = "bfgs"
!ion_temperature = "rescaling"
!tempw = 0
/
!ionsend
!cellend

K_POINTS {automatic}
6 6 6 0 0 0
ATOMIC_SPECIES
Ni  58.693  ni_pbe_v1.4.uspp.F.UPF
Cr  51.9961  cr_pbe_v1.5.uspp.F.UPF
ATOMIC_POSITIONS (angstrom)
Ni 0.017322127363 2.342794596834 4.686701226844
Cr 2.346467877363 0.001944596834 2.345851226844
Ni 0.005617877363 4.683644596834 2.345851226844
Cr 2.334763627363 2.342794596834 0.005001226844
Ni 2.343647607841 -0.007956149952 -0.003386970078
Cr 0.005617877363 2.342794596834 2.345851226844
Ni 2.355351857841 2.332893850048 2.337463029922
Cr -0.006086372637 0.001944596834 0.005001226844
CELL_PARAMETERS (angstrom)
4.6817 0 0
0.000000000000 4.6817 0
0.023408500000 0.000000000000 4.6817
!End