&CONTROL
calculation = "scf"
disk_io = 'none'
pseudo_dir = '/opt/QEpot/SSSP_efficiency_pseudos/'
tprnfor = .true.
tstress = .true.
verbosity = 'high'
dt = 50
/
&SYSTEM
ntyp =  3
occupations = 'smearing'
smearing = 'gaussian'
degauss =   2.2049585400d-02
ecutrho =   480
ecutwfc =   60 
ibrav = 0
nat = 28
nosym = .TRUE.
starting_magnetization(1) = 1.0000000000d-01
starting_magnetization(2) = 1.0000000000d-01
starting_magnetization(3) = 1.0000000000d-01
nspin = 2
/
&ELECTRONS
conv_thr =   2.0000000000d-06
electron_maxstep = 200
mixing_beta =   4.0000000000d-01
/
K_POINTS {automatic}
4 4 3 0 0 0
ATOMIC_SPECIES
Zn 65.38 Zn_pbe_v1.uspp.F.UPF
O 15.9994 O.pbe-n-kjpaw_psl.0.1.UPF
Al 26.981538 Al.pbe-n-kjpaw_psl.1.0.0.UPF
ATOMIC_POSITIONS {angstrom}
Al -0.019291605609 0.03899735109 4.139063332077
Al -0.039492202251 2.91460437557 4.161954326549
Al 2.903946050945 2.917286856882 -0.010451772775
Al 2.835867394391 0.03899735109 0.025468332077
Al -0.039492202251 1.45622887557 1.161596859849
Al 0.048787050945 4.375662356882 7.103500693925
Al 2.835867394391 4.41412385109 5.252300865377
Al 2.815666797749 1.45622887557 3.048716793249
Zn 1.476366550945 1.458911356882 6.159940727225
Zn 4.263446894391 1.49737285109 6.195860832077
Zn 1.388087297749 4.37297987557 2.105156826549
Zn 4.331525550945 4.375662356882 2.046345727225
O -0.019291605609 0.06551936789 2.230622635777
O -0.039492202251 2.88808235877 2.253513630249
O -0.019291605609 5.84597733429 6.047504028377
O -0.039492202251 2.94112639237 6.070395022849
O 2.835867394391 2.98227036789 6.344217635777
O 2.815666797749 5.80483335877 6.367108630249
O 2.835867394391 2.92922633429 1.933909028377
O 2.815666797749 0.02437539237 1.956800022849
O 1.322027830691 1.49737285109 4.078856755677
O 4.329506361449 1.45622887557 4.101747750149
O 1.322027830691 4.41412385109 4.199269908477
O 4.329506361449 4.37297987557 4.222160902949
O 4.177186830691 4.41412385109 8.192451755677
O 1.474347361449 4.37297987557 8.215342750149
O 4.177186830691 1.49737285109 0.085674908477
O 1.474347361449 1.45622887557 0.108565902949
CELL_PARAMETERS {angstrom}
5.710318 0.00 0.00
0.000000 5.833502 0.00
0.000000 0.000000 8.227190
