&CONTROL
calculation = "relax"
nstep = 100
tprnfor = .TRUE. 
tstress = .TRUE. 
etot_conv_thr = 1.0d-5
forc_conv_thr = 1.0d-4
disk_io = 'none'
pseudo_dir = '/opt/QEpot/SSSP_efficiency_pseudos/'
/
!controlend

&SYSTEM
occupations = "smearing"
nat = 8
smearing = "gaussian"
ntyp = 2
ibrav = 0
ecutwfc = 90
ecutrho = 1080
nosym = .TRUE.
degauss = 1.00000e-02
nspin = 2
starting_magnetization(2) = 0.000
starting_magnetization(1) = 0.000
!systemend
/

&ELECTRONS
startingwfc = "atomic+random"
mixing_beta = 2.0000e-01
mixing_mode = "plain"
!mixing_ndim = 4
electron_maxstep = 1000
conv_thr = 1.00000e-8
startingpot = "atomic"
!diagonalization = "cg"
/
!electronsend


&IONS
ion_dynamics = "bfgs"
!ion_temperature = "rescaling"
!tempw = 0
/
!ionsend
!cellend

K_POINTS {automatic}
6 6 6 0 0 0
ATOMIC_SPECIES
Fe  55.845  Fe.pbe-spn-kjpaw_psl.0.2.1.UPF
Co  58.933  Co_pbe_v1.2.uspp.F.UPF
ATOMIC_POSITIONS (angstrom)
Fe -0.00672012215 2.272128135756 -0.006963138757
Co 2.28136337785 -0.004571864244 2.269736861243
Fe 0.00466337785 -0.004571864244 2.269736861243
Co 2.26997987785 2.272128135756 -0.006963138757
Fe 2.284500492347 -0.001834099464 -0.002746923119
Co -0.00672012215 2.272128135756 2.269736861243
Fe 2.273116992347 2.274865900536 2.273953076881
Co 0.00466337785 -0.004571864244 -0.006963138757
CELL_PARAMETERS (angstrom)
4.5534 0 0
-0.022767000000 4.5534 0
0.000000000000 0.000000000000 4.5534
!End