&CONTROL
calculation = "relax"
nstep = 100
tprnfor = .TRUE. 
tstress = .TRUE. 
etot_conv_thr = 1.0d-5
forc_conv_thr = 1.0d-4
disk_io = 'none'
pseudo_dir = '/opt/QEpot/SSSP_efficiency_pseudos/'
/
!controlend

&SYSTEM
occupations = "smearing"
nat = 8
smearing = "gaussian"
ntyp = 2
ibrav = 0
ecutwfc = 90
ecutrho = 1080
nosym = .TRUE.
degauss = 1.00000e-02
nspin = 2
starting_magnetization(2) = 0.000
starting_magnetization(1) = 0.000
!systemend
/

&ELECTRONS
startingwfc = "atomic+random"
mixing_beta = 2.0000e-01
mixing_mode = "plain"
!mixing_ndim = 4
electron_maxstep = 1000
conv_thr = 1.00000e-8
startingpot = "atomic"
!diagonalization = "cg"
/
!electronsend


&IONS
ion_dynamics = "bfgs"
!ion_temperature = "rescaling"
!tempw = 0
/
!ionsend
!cellend

K_POINTS {automatic}
6 6 6 0 0 0
ATOMIC_SPECIES
Fe  55.845  Fe.pbe-spn-kjpaw_psl.0.2.1.UPF
Co  58.933  Co_pbe_v1.2.uspp.F.UPF
ATOMIC_POSITIONS (angstrom)
Fe 0.0067231315        2.2839003017        0.0002232236
Co 2.2835091336       -0.0043513103        2.2768229243
Fe 0.0067232405       -0.0041830594        2.2769231883
Co 2.2835090043        2.2837320013        0.0001230376
Fe 2.2944218795        0.0069363518        0.0056555203
Co 0.0069925295        2.2723453916        2.2768280032
Fe 2.2944212452        2.2722535908        2.2823552128
Co 0.0069927208        0.0070290257        0.0001280054
CELL_PARAMETERS (angstrom)
4.5534 0 0
0.000000000000 4.5534 0
0.000000000000 -0.022767000000 4.5534
!End