&CONTROL
calculation = "relax"
nstep = 100
tprnfor = .TRUE. 
tstress = .TRUE. 
etot_conv_thr = 1.0d-5
forc_conv_thr = 1.0d-4
disk_io = 'none'
pseudo_dir = '/opt/QEpot/SSSP_efficiency_pseudos/'
/
!controlend

&SYSTEM
occupations = "smearing"
nat = 8
smearing = "gaussian"
ntyp = 2
ibrav = 0
ecutwfc = 90
ecutrho = 1080
nosym = .TRUE.
degauss = 1.00000e-02
nspin = 2
starting_magnetization(2) = 0.000
starting_magnetization(1) = 0.000
!systemend
/

&ELECTRONS
startingwfc = "atomic+random"
mixing_beta = 2.0000e-01
mixing_mode = "plain"
!mixing_ndim = 4
electron_maxstep = 1000
conv_thr = 1.00000e-8
startingpot = "atomic"
!diagonalization = "cg"
/
!electronsend


&IONS
ion_dynamics = "bfgs"
!ion_temperature = "rescaling"
!tempw = 0
/
!ionsend
!cellend

K_POINTS {automatic}
6 6 6 0 0 0
ATOMIC_SPECIES
Fe  55.845  Fe.pbe-spn-kjpaw_psl.0.2.1.UPF
Co  58.933  Co_pbe_v1.2.uspp.F.UPF
ATOMIC_POSITIONS (angstrom)
Fe 0.00030202237 2.284473040261 0.006129883073
Co 2.27700202237 0.019156540261 2.282829883073
Fe 0.00030202237 0.019156540261 2.282829883073
Co 2.27700202237 2.284473040261 0.006129883073
Fe 2.281567173817 -0.001254155446 -0.005157802882
Co 0.00030202237 2.295856540261 2.282829883073
Fe 2.281567173817 2.286829344554 2.271542197118
Co 0.00030202237 0.007773040261 0.006129883073
CELL_PARAMETERS (angstrom)
4.5534 0 0
0.000000000000 4.5534 0
0.000000000000 0.022767000000 4.5534
!End