&CONTROL
calculation = "relax"
nstep = 100
tprnfor = .TRUE. 
tstress = .TRUE. 
etot_conv_thr = 1.0d-5
forc_conv_thr = 1.0d-4
disk_io = 'none'
pseudo_dir = '/opt/QEpot/SSSP_efficiency_pseudos/'
/
!controlend

&SYSTEM
occupations = "smearing"
nat = 8
smearing = "gaussian"
ntyp = 2
ibrav = 0
ecutwfc = 90
ecutrho = 1080
nosym = .TRUE.
degauss = 1.00000e-02
nspin = 2
starting_magnetization(2) = 0.000
starting_magnetization(1) = 0.000
!systemend
/

&ELECTRONS
startingwfc = "atomic+random"
mixing_beta = 2.0000e-01
mixing_mode = "plain"
!mixing_ndim = 4
electron_maxstep = 1000
conv_thr = 1.00000e-8
startingpot = "atomic"
!diagonalization = "cg"
/
!electronsend


&IONS
ion_dynamics = "bfgs"
!ion_temperature = "rescaling"
!tempw = 0
/
!ionsend
!cellend

K_POINTS {automatic}
6 6 6 0 0 0
ATOMIC_SPECIES
Fe  55.845  Fe.pbe-spn-kjpaw_psl.0.2.1.UPF
Co  58.933  Co_pbe_v1.2.uspp.F.UPF
ATOMIC_POSITIONS (angstrom)
Fe 0.0057415296        2.2771442106        0.0099743414
Co 2.2714082358        0.0011072466        2.2864332361
Fe -0.0056501541        0.0004450104        2.2866772179
Co 2.2827921051        2.2778093291        0.0097337006
Fe 2.2773525237        0.0065737478        0.0076317531
Co 0.0067402663        2.2778586249        2.2864148395
Fe 2.2887414343        2.2832731478        2.2843308408
Co -0.0046430052        0.0011578198        0.0097155045
CELL_PARAMETERS (angstrom)
4.5534 0 0
0.022767000000 4.5534 0
0.000000000000 0.000000000000 4.5534
!End